ITEM: TIMESTEP
750000
ITEM: NUMBER OF ATOMS
505
ITEM: BOX BOUNDS mm mm mm
-2e-06 0.020002
-8e-06 0.080008
-5e-06 0.050005
ITEM: ATOMS v_x1 v_y1 v_z1 v_rad1 
4.68933e-05 7.69949e-05 0.0001113 1.1301e-05 
5.96719e-06 5.9664e-06 0.000105965 5.965e-06 
5.61756e-05 6.05136e-05 0.000107704 7.705e-06 
3.93676e-05 4.32549e-05 0.00011883 1.88315e-05 
6.80345e-05 1.88299e-05 0.00011883 1.88315e-05 
2.04576e-05 6.7943e-05 0.000112839 1.284e-05 
4.43256e-05 8.75795e-06 0.000108755 8.755e-06 
8.72601e-05 3.58658e-05 0.000108755 8.755e-06 
6.24193e-05 6.54778e-05 0.00012852 1.45885e-05 
8.75458e-06 3.25861e-05 0.000108754 8.755e-06 
8.39927e-05 4.15455e-05 0.000126404 9.945e-06 
7.04719e-05 4.79038e-05 0.0001113 1.1301e-05 
8.75734e-06 5.00979e-05 0.000108755 8.755e-06 
1.13e-05 3.73558e-05 0.000128067 1.1301e-05 
8.56722e-05 5.97922e-05 0.000134139 9.945e-06 
2.24896e-05 1.46355e-05 0.000114587 1.45885e-05 
8.90193e-05 8.44479e-05 0.000129837 1.1301e-05 
3.20119e-05 2.25569e-05 0.000131999 6.78e-06 
8.47993e-05 6.78332e-05 0.000112839 1.284e-05 
4.23306e-05 9.94459e-06 0.000128232 9.945e-06 
2.63414e-05 7.70483e-06 0.000135422 7.705e-06 
9.39484e-05 9.94456e-06 0.000109944 9.945e-06 
8.75459e-06 8.75481e-06 0.000132522 8.755e-06 
3.18403e-05 8.32269e-05 0.000122996 8.755e-06 
9.69513e-05 2.46817e-05 0.00012495 1.1301e-05 
1.13e-05 8.60681e-05 0.00012589 1.1301e-05 
2.35386e-05 8.91301e-05 0.000108754 8.755e-06 
0.0001017 6.89719e-05 0.000131218 8.755e-06 
0.000107791 3.49547e-05 0.000135142 6.78e-06 
0.00010743 4.91155e-05 0.000116573 1.6575e-05 
0.000119501 1.28397e-05 0.000112839 1.284e-05 
0.000187162 7.80237e-05 0.000112839 1.284e-05 
0.000165731 6.09967e-05 0.000114587 1.45885e-05 
0.000136574 5.99682e-05 0.000114587 1.45885e-05 
0.000193204 6.81362e-06 0.00010678 6.78e-06 
0.000176075 8.75434e-06 0.000108754 8.755e-06 
0.000153029 7.63067e-05 0.00010678 6.78e-06 
0.000125023 3.19916e-05 0.000107705 7.705e-06 
0.000190055 5.56094e-05 0.000109944 9.945e-06 
0.000109804 9.94409e-06 0.000133253 9.945e-06 
0.000119602 2.93649e-05 0.00012674 8.755e-06 
0.00015238 2.57799e-05 0.000124307 2.4309e-05 
0.000114293 7.94478e-05 0.000114587 1.45885e-05 
0.000185083 3.12052e-05 0.0001113 1.1301e-05 
0.000184038 6.44604e-05 0.000132563 1.1301e-05 
0.000190055 4.49378e-05 0.000126729 9.945e-06 
0.000187161 1.28398e-05 0.000126829 1.284e-05 
0.000150714 7.28494e-05 0.000132033 1.1301e-05 
0.000127758 8.75443e-06 0.000138343 8.755e-06 
0.000131076 7.61616e-05 0.000128889 7.705e-06 
0.000167747 8.58578e-05 0.000124858 1.1301e-05 
6.79564e-06 9.35472e-05 0.00010678 6.78e-06 
1.88308e-05 0.000114376 0.00011883 1.88315e-05 
6.89255e-05 9.0273e-05 0.000114587 1.45885e-05 
6.43061e-05 0.000163902 0.000112839 1.284e-05 
6.15859e-05 0.000144197 0.000107704 7.705e-06 
5.59453e-05 0.000120775 0.00011883 1.88315e-05 
4.01668e-05 0.000153112 0.0001113 1.1301e-05 
4.12619e-05 9.74485e-05 0.000109944 9.945e-06 
3.4604e-05 0.000132635 0.000107705 7.705e-06 
1.46084e-05 0.000150605 0.000114587 1.45885e-05 
7.73549e-05 0.00010973 0.000107704 7.705e-06 
7.80381e-05 0.000146971 0.000108755 8.755e-06 
9.18343e-05 0.000159538 0.000109944 9.945e-06 
3.36874e-05 0.000139028 0.000127745 1.1301e-05 
6.93241e-05 0.000145435 0.00012523 9.945e-06 
6.7798e-06 0.0001691 0.000121884 6.78e-06 
8.21263e-05 0.000128753 0.000109944 9.945e-06 
5.01142e-05 0.000156715 0.000132998 1.284e-05 
2.38213e-05 0.000169703 0.000107704 7.705e-06 
9.94469e-06 0.000136893 0.000134389 9.945e-06 
8.92353e-05 0.000107969 0.000124372 1.284e-05 
9.3017e-05 9.07453e-05 0.000109944 9.945e-06 
3.65747e-05 0.000122292 0.000138412 8.755e-06 
8.69417e-05 0.000132599 0.000131878 1.284e-05 
8.14738e-05 0.000176348 0.000108754 8.755e-06 
9.84446e-05 0.000119699 0.000108754 8.755e-06 
4.63541e-05 0.00017917 0.000135162 9.945e-06 
8.13201e-05 0.000162767 0.000122543 6.78e-06 
4.22833e-05 0.00017711 0.000112839 1.284e-05 
0.000190055 8.97835e-05 0.000132138 9.945e-06 
0.000164248 9.32537e-05 0.000107704 7.705e-06 
0.000159931 0.000109919 0.000108754 8.755e-06 
0.000150227 0.000136332 0.000109944 9.945e-06 
0.000171093 0.00014837 0.000114587 1.45885e-05 
0.000192295 0.00014799 0.000107704 7.705e-06 
0.000162524 0.000178266 0.000116574 1.6575e-05 
0.0001887 0.000129678 0.0001113 1.1301e-05 
0.000141666 9.42087e-05 0.000116574 1.6575e-05 
0.000169178 0.000125848 0.000108754 8.755e-06 
0.000106833 0.000140687 0.000114587 1.45885e-05 
0.000130108 0.000123081 0.000114587 1.45885e-05 
0.000151465 0.000156392 0.000107705 7.705e-06 
0.000181968 0.000104898 0.000114587 1.45885e-05 
0.00018716 0.000123068 0.000134466 1.284e-05 
0.000132498 0.000150348 0.000112839 1.284e-05 
0.000141422 0.000168128 0.000107705 7.705e-06 
0.0001574 0.000122035 0.000128544 1.45885e-05 
0.000188455 0.00016507 0.000109944 9.945e-06 
0.0001421 0.000165149 0.000127256 9.945e-06 
0.000114207 0.000163621 0.000109944 9.945e-06 
0.000192295 0.000173539 0.000124946 7.705e-06 
0.000111862 0.000105011 0.0001113 1.1301e-05 
0.000120385 0.000161327 0.00012871 9.945e-06 
0.000124581 0.000139962 0.000131509 9.945e-06 
0.000150177 0.000147535 0.000124917 8.755e-06 
0.000108813 0.000119404 0.000126627 9.945e-06 
0.000100091 0.000177632 0.000109944 9.945e-06 
9.94467e-06 0.000180376 0.000109944 9.945e-06 
6.67572e-05 0.000183645 0.000107704 7.705e-06 
4.60954e-05 0.000245004 0.000114587 1.45885e-05 
4.14923e-05 0.000204854 0.000112839 1.284e-05 
6.25133e-05 0.000202057 0.000107705 7.705e-06 
8.32081e-05 0.000230526 0.0001113 1.1301e-05 
9.94423e-06 0.000200266 0.000109944 9.945e-06 
1.88305e-05 0.000226152 0.00011883 1.88315e-05 
6.07253e-05 0.00022187 0.000112839 1.284e-05 
2.58617e-05 0.000190525 0.000108754 8.755e-06 
6.98548e-05 0.000241847 0.000127921 1.284e-05 
8.32429e-05 0.000253127 0.0001113 1.1301e-05 
3.25144e-05 0.00024503 0.000133573 8.755e-06 
8.68368e-05 0.000201577 0.00011883 1.88315e-05 
5.87728e-05 0.000191463 0.000123077 1.1301e-05 
7.14468e-05 0.000220618 0.000131542 8.755e-06 
1.74442e-05 0.000190321 0.000125451 9.945e-06 
5.50985e-05 0.000208853 0.000126397 6.78e-06 
9.48196e-05 0.000238217 0.0001291 1.1301e-05 
7.59668e-05 0.000177078 0.000125359 8.755e-06 
6.6489e-05 0.000268898 0.000129635 1.1301e-05 
4.52533e-05 0.000266949 0.00010678 6.78e-06 
6.37285e-05 0.000261415 0.000109944 9.945e-06 
0.000188699 0.000186271 0.0001113 1.1301e-05 
0.000192295 0.000242212 0.000107704 7.705e-06 
0.000130966 0.000221981 0.0001113 1.1301e-05 
0.000151859 0.000199868 0.000108754 8.755e-06 
0.000150306 0.000217308 0.000108754 8.755e-06 
0.000107042 0.000225218 0.000112839 1.284e-05 
0.000173017 0.000207819 0.000114587 1.45885e-05 
0.000165205 0.000239452 0.0001113 1.1301e-05 
0.000140814 0.000235807 0.000105965 5.965e-06 
0.000190055 0.000224849 0.000109944 9.945e-06 
0.000148704 0.000229502 0.000128593 1.45885e-05 
0.000193221 0.000202163 0.00011864 6.78e-06 
0.000108891 0.000254392 0.000114588 1.45885e-05 
0.00019322 0.000208734 0.000106779 6.78e-06 
0.000179689 0.000249298 0.00010678 6.78e-06 
0.000120414 0.000218627 0.000125594 6.78e-06 
0.000127504 0.000241571 0.000108754 8.755e-06 
0.000181522 0.0002371 0.000112767 5.25e-06 
0.000190056 0.000262046 0.000109944 9.945e-06 
0.0001451 0.000258027 0.000116574 1.6575e-05 
0.000125861 0.000191305 0.000121393 2.1395e-05 
0.000191245 0.000214871 0.000127353 8.755e-06 
0.000154971 0.00019978 0.000124917 7.705e-06 
0.000170114 0.000253176 0.000128574 1.1301e-05 
0.000176055 0.000229867 0.000130617 1.284e-05 
0.000179122 0.000191082 0.000124836 5.965e-06 
8.54475e-05 0.000259482 0.000131452 9.945e-06 
0.000190055 0.000246805 0.000124597 9.945e-06 
0.000170212 0.000263386 0.000109944 9.945e-06 
0.000122106 0.000235607 0.000124306 8.755e-06 
9.45994e-05 0.000271504 0.000122329 7.705e-06 
7.70471e-06 0.000317491 0.000124308 7.705e-06 
7.30655e-05 0.000292918 0.00010678 6.78e-06 
5.5868e-05 0.000282604 0.000112839 1.284e-05 
7.886e-05 0.000354459 0.000107704 7.705e-06 
7.1238e-05 0.000337424 0.0001113 1.1301e-05 
1.68461e-05 0.000303105 0.000112839 1.284e-05 
2.13944e-05 0.000270269 0.000121393 2.1395e-05 
3.65382e-05 0.000314194 0.000109944 9.945e-06 
4.39003e-05 0.000338793 0.000116574 1.6575e-05 
7.963e-05 0.000275438 0.0001113 1.1301e-05 
9.94449e-06 0.000296763 0.000133606 9.945e-06 
6.21228e-05 0.000311102 0.000116574 1.6575e-05 
1.51193e-05 0.00033284 0.000112839 1.284e-05 
3.85588e-05 0.000296322 0.000118433 9.945e-06 
2.74178e-05 0.000318636 0.000130345 1.284e-05 
2.96612e-05 0.000296622 0.000136219 9.945e-06 
6.24545e-05 0.000355272 0.000108754 8.755e-06 
7.36699e-05 0.000289286 0.000126269 9.945e-06 
6.42062e-05 0.000332314 0.000128201 7.705e-06 
8.14041e-05 0.000306746 0.000132412 8.755e-06 
9.94418e-06 0.000354839 0.000109944 9.945e-06 
5.05268e-05 0.000264752 0.000118172 5.965e-06 
8.85204e-05 0.000323414 0.000120669 1.284e-05 
9.91261e-05 0.000273265 0.000107704 7.705e-06 
9.38365e-05 0.000338438 0.000107704 7.705e-06 
9.97733e-05 0.000312439 0.000137164 9.945e-06 
0.000188699 0.000266775 0.000131719 1.1301e-05 
0.000127666 0.00026948 0.000128997 7.705e-06 
0.00016662 0.000274825 0.000125813 9.945e-06 
9.78854e-05 0.000295833 0.000116574 1.6575e-05 
0.000104067 0.000326914 0.000107704 7.705e-06 
0.000111151 0.000275399 0.000127057 9.945e-06 
0.000124942 0.000268246 0.000107704 7.705e-06 
0.000109518 0.000324363 0.000126556 8.755e-06 
0.000117954 0.000314447 0.0001113 1.1301e-05 
0.000118885 0.000342081 0.000114587 1.45885e-05 
0.000190056 0.000309541 0.000109944 9.945e-06 
0.000152476 0.000299157 0.000107705 7.705e-06 
0.000130542 0.000290142 0.000116574 1.6575e-05 
0.000182762 0.000332499 0.000114588 1.45885e-05 
0.000166829 0.000292997 0.000106779 6.78e-06 
0.000185412 0.000285904 0.000114587 1.45885e-05 
0.000154824 0.000281792 0.000109944 9.945e-06 
0.000164056 0.000324265 0.000106779 6.78e-06 
0.000139923 0.00033943 0.000107704 7.705e-06 
0.000143311 0.000318499 0.000114587 1.45885e-05 
0.000168778 0.000308927 0.000118064 1.284e-05 
0.000157549 0.000339343 0.000109944 9.945e-06 
0.000139112 0.000338574 0.000125733 8.755e-06 
0.000194036 0.000347364 0.000105964 5.965e-06 
0.000161278 0.000330453 0.000128888 1.1301e-05 
0.000100855 0.000338321 0.000127577 7.705e-06 
0.000155231 0.000292415 0.000129315 1.1301e-05 
0.000164675 0.000350134 0.000127057 8.755e-06 
0.00019322 0.000302879 0.000124955 6.78e-06 
0.000171317 0.000353696 0.000109944 9.945e-06 
9.42624e-05 0.000353847 0.000118821 1.1301e-05 
6.26253e-05 0.000362468 0.000127473 1.1301e-05 
2.98062e-05 0.000362256 0.000111299 1.1301e-05 
3.96356e-05 0.000360617 0.000128704 8.755e-06 
4.84053e-05 0.000363782 0.000107704 7.705e-06 
1.87551e-05 0.000381746 0.000108755 8.755e-06 
4.50514e-05 0.000389361 0.000121393 2.1395e-05 
3.90039e-05 0.000435653 0.000108754 8.755e-06 
6.08335e-05 0.000371163 0.000106779 6.78e-06 
9.45884e-05 0.000394639 0.0001113 1.1301e-05 
7.34144e-05 0.000396191 0.000109944 9.945e-06 
6.25807e-05 0.000425476 0.00011883 1.88315e-05 
7.92195e-05 0.000374348 0.000112839 1.284e-05 
1.88312e-05 0.000419762 0.00011883 1.88315e-05 
8.16014e-05 0.000390966 0.000124681 7.705e-06 
8.41849e-05 0.000411594 0.000108754 8.755e-06 
1.45875e-05 0.000372137 0.000129764 1.45885e-05 
8.9663e-05 0.000429434 0.000109944 9.945e-06 
7.82377e-05 0.000439764 0.000105964 5.965e-06 
8.7606e-06 0.000396125 0.000108755 8.755e-06 
8.63254e-05 0.000408971 0.000128521 1.1301e-05 
4.1543e-05 0.000416208 0.000132085 7.705e-06 
3.84068e-05 0.000441515 0.000127924 1.1301e-05 
7.00072e-05 0.000401838 0.000125314 6.78e-06 
9.94449e-06 0.000396067 0.000132526 9.945e-06 
0.000100269 0.00037776 0.000130089 1.45885e-05 
0.000104644 0.000440561 0.000108754 8.755e-06 
0.000189387 0.000362049 0.000109945 9.945e-06 
0.000108758 0.000366591 0.000109944 9.945e-06 
0.000153986 0.00043043 0.000109944 9.945e-06 
0.000192296 0.000440422 0.000107703 7.705e-06 
0.000148206 0.000386962 0.000109944 9.945e-06 
0.000163161 0.000405847 0.000114587 1.45885e-05 
0.000136452 0.000404433 0.000108754 8.755e-06 
0.000113824 0.000416576 0.00011883 1.88315e-05 
0.000192296 0.000379313 0.000107704 7.705e-06 
0.00017635 0.000433575 0.000127777 1.88315e-05 
0.000190055 0.000415623 0.000109944 9.945e-06 
0.000135321 0.000430711 0.000108754 8.755e-06 
0.00012419 0.000385089 0.000114587 1.45885e-05 
0.000171148 0.000377785 0.000114588 1.45885e-05 
0.000142536 0.000417859 0.000120262 9.945e-06 
0.000152732 0.000382237 0.000126336 7.705e-06 
0.000144632 0.000361535 0.000116574 1.6575e-05 
0.000119983 0.000363711 0.00012611 9.945e-06 
0.000130283 0.000435886 0.000135083 1.1301e-05 
0.000142471 0.000398195 0.000125323 9.945e-06 
0.000186937 0.000395979 0.000109944 9.945e-06 
0.000128529 0.000349381 0.000134552 8.755e-06 
0.000148773 0.000434223 0.000127497 8.755e-06 
0.000125776 0.000396862 0.000136052 9.945e-06 
0.000145633 0.000446141 0.000107705 7.705e-06 
5.96649e-06 0.000438181 0.000105965 5.965e-06 
7.27374e-05 0.00045123 0.000106779 6.78e-06 
3.19908e-05 0.000451696 0.000108754 8.755e-06 
9.24553e-05 0.000450754 0.00010678 6.78e-06 
8.24078e-05 0.000446713 0.000119654 9.945e-06 
5.38467e-05 0.000457453 0.000114588 1.45885e-05 
6.35645e-05 0.00050581 0.000109944 9.945e-06 
3.11722e-05 0.000518097 0.000107704 7.705e-06 
5.01664e-05 0.000524009 0.000112839 1.284e-05 
1.93677e-05 0.000477182 0.000114587 1.45885e-05 
6.30935e-05 0.000483216 0.000112839 1.284e-05 
7.96893e-05 0.000496415 0.000108754 8.755e-06 
8.0731e-05 0.000466805 0.0001113 1.1301e-05 
1.28396e-05 0.000503765 0.000112839 1.284e-05 
8.3136e-05 0.000527443 0.000121393 2.1395e-05 
9.34615e-05 0.000483759 0.000109944 9.945e-06 
6.04308e-05 0.000499879 0.000130102 1.1301e-05 
4.17836e-05 0.000476364 0.000124524 9.945e-06 
8.85111e-05 0.000495258 0.000123835 8.755e-06 
1.28388e-05 0.000450861 0.000118692 1.284e-05 
3.97393e-05 0.000498701 0.000114587 1.45885e-05 
7.96468e-05 0.000501734 0.000138972 9.945e-06 
9.94479e-06 0.000524038 0.000122827 9.945e-06 
3.23393e-05 0.000460232 0.000124038 8.755e-06 
9.94475e-06 0.000491718 0.00013196 9.945e-06 
7.00666e-05 0.00046905 0.0001311 1.1301e-05 
2.64563e-05 0.000523748 0.00012018 6.78e-06 
0.00015871 0.000531276 0.000120086 5.965e-06 
0.000172444 0.000460744 0.000127132 7.705e-06 
0.000168677 0.000497158 0.000136359 9.945e-06 
0.000147267 0.000454217 0.000127022 1.1301e-05 
0.000187034 0.000509642 0.000129467 1.1301e-05 
0.000137337 0.000509806 0.000129422 8.755e-06 
0.000109508 0.000478847 0.000122219 7.705e-06 
0.000153894 0.000487471 0.000124569 1.1301e-05 
0.000190056 0.000456831 0.000137746 9.945e-06 
0.000159398 0.000468752 0.000125361 7.705e-06 
0.000146182 0.000510911 0.00010678 6.78e-06 
0.000185412 0.000479996 0.000131138 1.45885e-05 
0.000146724 0.000470445 0.0001113 1.1301e-05 
0.000145377 0.000503187 0.000117895 6.78e-06 
0.000134966 0.000526434 0.000107704 7.705e-06 
0.000169019 0.000477176 0.0001113 1.1301e-05 
0.000122574 0.000490695 0.000121562 9.945e-06 
0.0001887 0.0004963 0.0001113 1.1301e-05 
0.000138706 0.000490073 0.000109944 9.945e-06 
0.000190055 0.000517458 0.000109944 9.945e-06 
0.000124829 0.000450732 0.000114587 1.45885e-05 
0.000165903 0.00050812 0.000114587 1.45885e-05 
0.000151361 0.000525423 0.000108754 8.755e-06 
0.000155131 0.00049071 0.00010678 6.78e-06 
0.000163469 0.000455266 0.0001113 1.1301e-05 
0.000128801 0.00050882 0.0001113 1.1301e-05 
0.000193182 0.000477718 0.00010678 6.78e-06 
0.000105442 0.000502923 0.000112839 1.284e-05 
0.000125972 0.000474794 0.000109944 9.945e-06 
0.000110968 0.000483814 0.000107704 7.705e-06 
0.000103226 0.000464616 0.0001113 1.1301e-05 
0.000102252 0.00044843 0.000127046 1.1301e-05 
0.00018716 0.000459639 0.000112839 1.284e-05 
5.13653e-05 0.000569429 0.0001215 7.705e-06 
6.20671e-05 0.000565804 0.000133468 8.755e-06 
7.70482e-06 0.000597978 0.000124273 7.705e-06 
5.65741e-05 0.000592596 0.000125464 1.45885e-05 
3.69943e-05 0.000575776 0.000134739 1.284e-05 
1.13003e-05 0.000579578 0.00012739 1.1301e-05 
6.37678e-05 0.0006182 0.000132172 1.284e-05 
8.80355e-05 0.000620943 0.000108754 8.755e-06 
3.02158e-05 0.000615343 0.000130206 1.284e-05 
7.95248e-05 0.00057096 0.00012505 1.1301e-05 
8.75485e-06 0.000614928 0.000127149 8.755e-06 
4.78971e-05 0.000553557 0.000128395 9.945e-06 
6.65456e-05 0.000553977 0.000119693 9.945e-06 
9.96539e-05 0.000607844 0.000108754 8.755e-06 
1.28395e-05 0.000555559 0.000125525 1.284e-05 
4.75429e-05 0.000622933 0.000112839 1.284e-05 
1.06508e-05 0.000607852 0.000109944 9.945e-06 
7.71967e-06 0.000567964 0.000107705 7.705e-06 
3.39904e-05 0.000562708 0.000112839 1.284e-05 
8.9109e-05 0.000589448 0.000112839 1.284e-05 
7.75909e-06 0.000583385 0.000107705 7.705e-06 
2.95018e-05 0.000592807 0.000114587 1.45885e-05 
5.08014e-05 0.000546721 0.000109944 9.945e-06 
2.77444e-05 0.00061534 0.000108754 8.755e-06 
6.92648e-05 0.000588073 0.000107704 7.705e-06 
8.36801e-05 0.000556611 0.000109944 9.945e-06 
4.8069e-05 0.000603048 0.000107704 7.705e-06 
7.2878e-05 0.000607324 0.0001113 1.1301e-05 
6.45874e-05 0.000571202 0.000109944 9.945e-06 
4.74611e-05 0.000579084 0.000108754 8.755e-06 
5.55805e-05 0.000536549 0.000129565 8.755e-06 
9.94342e-06 0.000539191 0.000109944 9.945e-06 
3.11403e-05 0.000538786 0.0001113 1.1301e-05 
0.000139783 0.000569198 0.000131265 8.755e-06 
0.000191245 0.000580561 0.000136925 8.755e-06 
0.000194751 0.00056264 0.000119918 5.25e-06 
0.000192295 0.000616637 0.000117875 7.705e-06 
0.00013827 0.000533121 0.000128734 1.45885e-05 
0.00018716 0.000600863 0.0001308 1.284e-05 
0.000187497 0.000554268 0.000132214 1.1301e-05 
0.000130149 0.000589708 0.000132287 1.1301e-05 
0.000124656 0.000606935 0.000128829 6.78e-06 
0.000160889 0.00058006 0.000107704 7.705e-06 
0.000163568 0.00058364 0.000126138 9.945e-06 
0.000168805 0.00059328 0.000107704 7.705e-06 
0.000111593 0.000565091 0.000121393 2.1395e-05 
0.000160554 0.000555971 0.00011883 1.88315e-05 
0.000118206 0.000597574 0.000112839 1.284e-05 
0.000140999 0.000580392 0.000112839 1.284e-05 
0.000184681 0.000578879 0.000114587 1.45885e-05 
0.00019322 0.000596843 0.00010678 6.78e-06 
0.000151336 0.000612101 0.000121393 2.1395e-05 
0.00018007 0.00060668 0.000109944 9.945e-06 
0.000192295 0.00055909 0.000107704 7.705e-06 
0.000135287 0.000551386 0.000108754 8.755e-06 
0.000187161 0.000539872 0.000112839 1.284e-05 
0.000145086 0.000539495 0.000106779 6.78e-06 
0.000168082 0.000530618 0.000108754 8.755e-06 
0.000115936 0.000532228 0.000112839 1.284e-05 
6.30825e-05 0.000687091 0.000123454 7.705e-06 
7.1262e-05 0.000704606 0.000126283 8.755e-06 
8.7547e-06 0.000655439 0.000120839 8.755e-06 
9.94463e-06 0.000683265 0.000124371 9.945e-06 
2.57703e-05 0.000696204 0.000117356 7.705e-06 
8.7546e-06 0.00066811 0.000108754 8.755e-06 
4.63451e-05 0.000670258 0.000125068 1.45885e-05 
5.75416e-05 0.000644458 0.000129659 1.1301e-05 
5.20767e-05 0.00069956 0.000129362 9.945e-06 
7.06853e-05 0.000695529 0.000109944 9.945e-06 
5.93948e-05 0.00068067 0.000108754 8.755e-06 
8.54846e-05 0.000694396 0.000126039 8.755e-06 
4.34002e-05 0.000692499 0.0001113 1.1301e-05 
1.86646e-05 0.00065501 0.000107704 7.705e-06 
2.59055e-05 0.000678189 0.0001113 1.1301e-05 
3.60644e-05 0.000640763 0.000108754 8.755e-06 
8.17284e-05 0.000664845 0.000121393 2.1395e-05 
7.7049e-06 0.000688622 0.000107704 7.705e-06 
3.47729e-05 0.000658224 0.000108754 8.755e-06 
8.67338e-05 0.000711441 0.000112839 1.284e-05 
7.09481e-05 0.000633499 0.000112838 1.284e-05 
5.19897e-05 0.000651022 0.000109944 9.945e-06 
5.96446e-06 0.000650263 0.000105965 5.965e-06 
2.61134e-05 0.000651071 0.000119486 6.78e-06 
3.56782e-05 0.00063881 0.000128711 1.1301e-05 
8.36084e-05 0.00062937 0.000131326 9.945e-06 
1.45876e-05 0.000633718 0.000114587 1.45885e-05 
8.89765e-05 0.000643333 0.000105965 5.965e-06 
0.000135836 0.000628772 0.000136571 5.965e-06 
0.000181548 0.000626164 0.000119028 5.965e-06 
0.000146438 0.000663167 0.000133178 7.705e-06 
0.000110649 0.00066801 0.000122015 7.705e-06 
0.000161473 0.000663913 0.000129886 7.705e-06 
0.000137977 0.00067575 0.000124146 9.945e-06 
0.00015819 0.000636717 0.000137395 8.755e-06 
0.000192241 0.000700165 0.000107705 7.705e-06 
0.000124418 0.000661131 0.00013351 1.1301e-05 
0.000188699 0.00070367 0.000132609 1.1301e-05 
0.000140401 0.00064515 0.000133566 1.1301e-05 
0.000120675 0.000678593 0.000127007 7.705e-06 
0.000138364 0.00069492 0.000109944 9.945e-06 
0.000148984 0.000661821 0.000115179 9.945e-06 
0.000190056 0.000682486 0.000133472 9.945e-06 
0.000192295 0.0006621 0.000107705 7.705e-06 
0.000109735 0.000673879 0.000106779 6.78e-06 
0.0001887 0.000680412 0.0001113 1.1301e-05 
0.000121038 0.000697433 0.000107704 7.705e-06 
0.000144418 0.000692977 0.000127529 8.755e-06 
0.000155591 0.000676615 0.000123443 7.705e-06 
0.000177803 0.000668989 0.000125518 9.945e-06 
0.000169734 0.000645364 0.000116574 1.6575e-05 
0.000124832 0.000680342 0.000109944 9.945e-06 
0.000142577 0.00064194 0.0001113 1.1301e-05 
0.000148698 0.000679381 0.000108754 8.755e-06 
0.000128236 0.000659409 0.0001113 1.1301e-05 
0.000191245 0.000630298 0.000108754 8.755e-06 
0.000102227 0.000690962 0.000112839 1.284e-05 
0.000165655 0.000671322 0.000109944 9.945e-06 
0.000166904 0.00069697 0.000116574 1.6575e-05 
0.000108362 0.000658532 0.000108754 8.755e-06 
0.000124336 0.000697234 0.00012642 1.1301e-05 
0.000113248 0.000631601 0.000121393 2.1395e-05 
0.000192296 0.00064669 0.000107704 7.705e-06 
0.000104483 0.000683477 0.000135678 1.1301e-05 
0.000174461 0.000623264 0.000107704 7.705e-06 
4.97776e-05 0.000791245 0.000129174 8.755e-06 
1.45901e-05 0.000790055 0.000129283 9.945e-06 
5.6715e-05 0.000772479 0.000127789 1.1301e-05 
5.95685e-05 0.000753225 0.000109944 9.945e-06 
8.7623e-05 0.000787161 0.000136246 1.284e-05 
4.62032e-05 0.000731418 0.000128355 1.284e-05 
5.74263e-05 0.000714309 0.000112839 1.284e-05 
8.16244e-05 0.000749916 0.0001113 1.1301e-05 
7.16534e-05 0.000792296 0.000124386 7.705e-06 
7.55722e-05 0.000731449 0.000131286 1.6575e-05 
7.20291e-05 0.000770379 0.0001113 1.1301e-05 
3.43077e-05 0.000754558 0.000114587 1.45885e-05 
8.52627e-05 0.0007887 0.0001113 1.1301e-05 
5.84253e-05 0.000788428 0.0001113 1.1301e-05 
5.09967e-05 0.000769801 0.000108754 8.755e-06 
1.14979e-05 0.000768014 0.0001113 1.1301e-05 
3.31828e-05 0.000783713 0.000114587 1.45885e-05 
7.08084e-05 0.000734708 0.000107703 7.705e-06 
9.94397e-06 0.000790055 0.000109944 9.945e-06 
5.43933e-05 0.000735295 0.000108754 8.755e-06 
9.4131e-05 0.000732795 0.000109944 9.945e-06 
1.45878e-05 0.000733054 0.000114587 1.45885e-05 
6.77982e-06 0.000716663 0.000125855 6.78e-06 
3.71711e-05 0.000732137 0.000108754 8.755e-06 
1.13006e-05 0.000706935 0.0001113 1.1301e-05 
3.31675e-05 0.000712651 0.0001113 1.1301e-05 
0.000192295 0.00075563 0.000133676 7.705e-06 
0.000191245 0.000740279 0.000127831 8.755e-06 
0.000127643 0.000735566 0.000121392 5.965e-06 
0.000128297 0.000778757 0.000124572 7.705e-06 
0.00014208 0.000718266 0.000121962 1.6575e-05 
0.000137582 0.000788699 0.0001113 1.1301e-05 
0.000136523 0.000756954 0.000131389 1.6575e-05 
0.000100301 0.000740207 0.000127339 9.945e-06 
0.000162939 0.00074346 0.000116574 1.6575e-05 
0.000114635 0.000791207 0.000108755 8.755e-06 
0.000137048 0.000741364 0.000109944 9.945e-06 
0.000190055 0.0007456 0.000109944 9.945e-06 
0.000185412 0.000721963 0.000114587 1.45885e-05 
0.000166897 0.000790056 0.000109944 9.945e-06 
0.000105071 0.000767279 0.00011883 1.88315e-05 
0.000183426 0.000770407 0.000116574 1.6575e-05 
0.000126995 0.000727608 0.000106778 6.78e-06 
0.00013 0.000772203 0.00010678 6.78e-06 
0.00016183 0.00071909 0.000107705 7.705e-06 
0.000154263 0.000771317 0.000112839 1.284e-05 
0.00011422 0.000739575 0.0001113 1.1301e-05 
9.82287e-05 0.000723203 0.000121957 5.965e-06 
0.000100697 0.000707478 0.000134023 1.284e-05 
0.000165295 0.000720796 0.000121695 6.78e-06 
0.000112774 0.000715527 0.000112839 1.284e-05 
