ITEM: TIMESTEP
1500000
ITEM: NUMBER OF ATOMS
4000
ITEM: BOX BOUNDS ff ff ff
-0.001 0.001
-0.001 0.00015
-0.001 0.005
ITEM: ATOMS v_x1 v_y1 v_z1 v_rad1 
-0.000619853 -4.66639e-05 -0.00096 4e-05 
-0.000460551 -7.49715e-05 -0.000819091 6e-05 
-4.37582e-06 -4.47669e-05 -0.000826341 4e-05 
0.0003035 -4.29933e-05 -0.00095 5e-05 
0.000930375 -5.68022e-05 -0.000960001 4e-05 
-0.000950001 -3.87686e-05 -0.00095 5e-05 
-0.000885178 1.144e-05 -0.000837044 4e-05 
-0.000858234 2.105e-05 -0.000940002 6e-05 
-0.000956636 5.23582e-05 -0.00095686 4e-05 
-0.000980003 0.000130003 -0.00092228 2e-05 
-0.000901175 0.000110001 -0.000955679 4e-05 
-0.000968959 0.000119999 -0.000970003 3e-05 
-0.000940001 9.00012e-05 -0.000865721 6e-05 
-0.00084675 0.000110003 -0.000895789 4e-05 
-0.000833391 0.000120001 -0.000970001 3e-05 
-0.00097 1.52153e-05 -0.000825634 3e-05 
-0.00080218 -3.65218e-05 -0.000899463 3e-05 
-0.000675163 -1.38191e-05 -0.000917519 3e-05 
-0.000796993 2.51063e-05 -0.000848719 5e-05 
-0.000748987 8.24245e-06 -0.000939043 5e-05 
-0.000779142 9.29428e-05 -0.000935006 4e-05 
-0.000697665 3.32873e-05 -0.000856901 5e-05 
-0.000724893 0.000120002 -0.000970001 3e-05 
-0.000701548 6.47311e-05 -0.000970001 3e-05 
-0.000707913 0.000110002 -0.000902833 4e-05 
-0.000767121 0.000110002 -0.000849034 4e-05 
-0.000649165 0.000110002 -0.000959682 4e-05 
-0.00064138 3.03843e-05 -0.000960001 4e-05 
-0.000556781 -2.58236e-05 -0.000877312 3e-05 
-0.000564836 1.02396e-05 -0.000948381 4e-05 
-0.000491047 -4.06506e-06 -0.000887586 4e-05 
-0.00061596 1.03256e-05 -0.000886849 4e-05 
-0.000558513 0.000100002 -0.000950002 5e-05 
-0.000623304 0.000100001 -0.000873833 5e-05 
-0.000552271 0.000120001 -0.000842913 3e-05 
-0.000547938 5.08347e-05 -0.000875365 4e-05 
-0.000495307 0.000110002 -0.000886719 4e-05 
-0.000489797 3.54194e-05 -0.000960001 4e-05 
-0.000460861 0.000110001 -0.000959822 4e-05 
-0.000628083 2.23667e-05 -0.000818967 3e-05 
-0.000431792 1.8728e-05 -0.000838912 4e-05 
-0.000455511 5.44878e-05 -0.000902029 3e-05 
-0.000371779 4.56654e-06 -0.000930002 7e-05 
-0.000380862 0.000110003 -0.000960002 4e-05 
-0.000346398 0.000120002 -0.000894878 3e-05 
-0.000415316 0.000110002 -0.000887803 4e-05 
-0.000353149 0.000120002 -0.000833374 3e-05 
-0.000302539 7.89565e-05 -0.000858942 4e-05 
-0.00039944 8.26862e-05 -0.000825341 3e-05 
-0.000291981 0.000100002 -0.000950001 5e-05 
-0.00035781 4.14041e-05 -0.000838091 3e-05 
-0.000276351 2.41356e-05 -0.00097 3e-05 
-0.000109738 1.44195e-05 -0.00096 4e-05 
-0.000268642 1.51324e-05 -0.000893253 4e-05 
-0.000198984 2.03438e-05 -0.000950002 5e-05 
-0.000194732 0.000110002 -0.000956562 4e-05 
-0.000245855 0.000120001 -0.00085751 3e-05 
-0.00017778 0.000110003 -0.000870378 4e-05 
-0.000109517 0.000120002 -0.000882208 3e-05 
-0.000126766 0.000120001 -0.00097 3e-05 
-0.000231922 7.85741e-05 -0.000901693 3e-05 
-0.000126347 5.24691e-05 -0.000891454 4e-05 
-0.00019771 3.31078e-05 -0.000860923 4e-05 
-0.000255421 4.23011e-05 -0.000822388 3e-05 
-6.85023e-05 -1.601e-05 -0.000883433 5e-05 
5.31178e-05 -3.05249e-05 -0.000956793 4e-05 
-2.25566e-05 -4.77652e-06 -0.000960001 4e-05 
3.11332e-05 2.99055e-05 -0.000891816 5e-05 
2.49469e-05 4.56546e-05 -0.000970003 3e-05 
3.71119e-05 0.000120001 -0.000888293 3e-05 
-4.73922e-05 9.00025e-05 -0.000940003 6e-05 
-1.81446e-05 0.000110002 -0.000846494 4e-05 
4.93035e-05 0.000110001 -0.000956497 4e-05 
-2.48451e-05 3.24104e-05 -0.000821391 4e-05 
0.000142553 -1.09926e-05 -0.000970001 3e-05 
9.38319e-05 3.82639e-05 -0.00096 4e-05 
0.000205848 2.13245e-06 -0.000854085 4e-05 
0.000102114 -2.52387e-05 -0.000887269 4e-05 
0.000220355 1.19641e-05 -0.000960001 4e-05 
0.000157404 2.66082e-05 -0.000912856 4e-05 
0.000129234 0.000110002 -0.000960001 4e-05 
0.000227916 0.00013 -0.00098 2e-05 
0.000209049 0.000100002 -0.000919634 5e-05 
0.000112992 9.00034e-05 -0.000849545 6e-05 
0.000269996 6.02919e-05 -0.00097 3e-05 
0.000317094 -1.15777e-05 -0.000839004 3e-05 
0.000322903 3.19954e-05 -0.000970001 3e-05 
0.000396805 8.79338e-06 -0.000950001 5e-05 
0.000280253 3.53203e-05 -0.000892326 5e-05 
0.000275874 0.000120002 -0.00097 3e-05 
0.000344308 0.000100002 -0.000933715 5e-05 
0.000418195 7.26e-05 -0.000890244 4e-05 
0.00040709 -1.21948e-05 -0.000838415 6e-05 
0.000429801 0.000110002 -0.000960001 4e-05 
0.000444037 0.000110002 -0.00082442 4e-05 
0.000346067 9.00029e-05 -0.000823202 6e-05 
0.000607837 2.18442e-05 -0.00087736 3e-05 
0.0004879 -3.98515e-05 -0.000938632 5e-05 
0.000479289 4.71482e-05 -0.00096 4e-05 
0.000568911 0.000110001 -0.000890645 4e-05 
0.000488911 0.000110002 -0.000890647 4e-05 
0.000528779 0.000110002 -0.000960002 4e-05 
0.000608777 0.000110002 -0.000960002 4e-05 
0.000520862 2.25207e-05 -0.000854234 6e-05 
0.000574766 2.72805e-05 -0.000950001 5e-05 
0.000606469 0.00013 -0.000845956 2e-05 
0.000781846 -6.2347e-06 -0.000846927 4e-05 
0.00067644 -1.39215e-05 -0.000940001 6e-05 
0.000763062 3.18683e-05 -0.00096 4e-05 
0.000762999 6.37566e-05 -0.000880778 4e-05 
0.000666507 9.00034e-05 -0.000880837 6e-05 
0.000677331 0.000120001 -0.000970001 3e-05 
0.000745885 0.000110001 -0.000960001 4e-05 
0.000774699 0.00013 -0.00091124 2e-05 
0.00080725 1.13425e-05 -0.000909741 3e-05 
0.000926854 -2.8478e-05 -0.000822277 2e-05 
0.000827813 7.22592e-06 -0.00097 3e-05 
0.000867991 1.06704e-05 -0.000904316 3e-05 
0.000895653 0.00013 -0.000894169 2e-05 
0.000950001 -9.97095e-06 -0.000885694 5e-05 
0.000909284 2.03665e-05 -0.000960001 4e-05 
0.000950002 0.000100002 -0.000950002 5e-05 
0.000841198 9.00024e-05 -0.000937308 6e-05 
0.000940001 9.00027e-05 -0.000840918 6e-05 
0.000867654 8.81915e-06 -0.000824339 5e-05 
0.000826835 0.000100002 -0.000828711 5e-05 
-0.000690259 -4.08294e-05 -0.000705529 4e-05 
-0.000237546 -6.09817e-05 -0.000820182 7e-05 
9.20984e-05 -6.85121e-05 -0.000678085 5e-05 
0.000240756 -5.99473e-05 -0.00066575 5e-05 
0.00033598 -5.60549e-05 -0.00067364 4e-05 
0.000625669 -6.22082e-05 -0.000663442 5e-05 
0.000804358 -7.74724e-05 -0.000686704 4e-05 
0.000900341 -5.19642e-05 -0.000783881 3e-05 
0.00096 -6.78697e-05 -0.000721226 4e-05 
-0.000960001 3.35878e-06 -0.000693571 4e-05 
-0.000826443 -2.81496e-05 -0.000701002 2e-05 
-0.000927293 4.63299e-05 -0.000765568 5e-05 
-0.000852488 0.000100002 -0.000706461 5e-05 
-0.000964186 0.000120001 -0.000784242 3e-05 
-0.000950002 0.000100002 -0.000684307 5e-05 
-0.000847941 0.000100002 -0.000806356 5e-05 
-0.000862165 1.33516e-05 -0.000657395 5e-05 
-0.000832794 1.51746e-05 -0.000755616 5e-05 
-0.000825965 0.00013 -0.000648483 2e-05 
-0.000902373 5.12785e-05 -0.000700344 2e-05 
-0.000661167 -1.76993e-05 -0.000788967 3e-05 
-0.0007403 -1.60128e-05 -0.000777341 5e-05 
-0.000687019 0.000110003 -0.000811063 4e-05 
-0.000683609 4.30172e-05 -0.000739909 4e-05 
-0.000766018 1.88085e-06 -0.000682375 5e-05 
-0.000669839 0.000110003 -0.000698403 4e-05 
-0.000759077 8.65353e-05 -0.000762521 5e-05 
-0.000762196 0.000100004 -0.000663483 5e-05 
-0.000659763 2.82754e-05 -0.000654388 5e-05 
-0.000500719 -4.27554e-05 -0.000733368 4e-05 
-0.000608035 -1.30381e-05 -0.000729336 5e-05 
-0.000540992 -1.76379e-06 -0.000802668 5e-05 
-0.000599562 9.00026e-05 -0.000766893 6e-05 
-0.000481748 9.00037e-05 -0.000789683 6e-05 
-0.00052917 0.000120001 -0.000719316 3e-05 
-0.000526169 3.82044e-05 -0.000703409 5e-05 
-0.000590169 0.000100003 -0.000657754 5e-05 
-0.000500665 0.000110001 -0.000655503 4e-05 
-0.000458097 -1.21852e-05 -0.000672963 4e-05 
-0.000445329 1.68468e-05 -0.000751979 3e-05 
-0.000336046 -6.86524e-06 -0.000778123 5e-05 
-0.000354127 -2.96373e-05 -0.000673034 5e-05 
-0.000388098 0.000120001 -0.000779747 3e-05 
-0.000311528 0.000100002 -0.000768047 5e-05 
-0.00030136 3.51429e-05 -0.000706485 4e-05 
-0.000400244 8.00034e-05 -0.000688904 7e-05 
-0.00039939 4.18874e-05 -0.000781349 3e-05 
-9.43146e-05 -1.29766e-05 -0.00075994 5e-05 
-8.95112e-05 6.21789e-05 -0.00072383 2e-05 
-0.000240689 0.000100002 -0.000691924 5e-05 
-0.000258807 4.00867e-05 -0.000762526 3e-05 
-0.000170914 3.09025e-05 -0.000796295 3e-05 
-0.000140729 0.000100001 -0.000694742 5e-05 
-0.000103054 9.00033e-05 -0.000797602 6e-05 
-0.000212155 0.000100001 -0.000787766 5e-05 
-0.000193577 7.73136e-07 -0.000714576 6e-05 
-0.000136607 3.22401e-05 -0.000652417 3e-05 
-0.000260562 1.29763e-05 -0.000641339 4e-05 
-0.000189359 5.99577e-05 -0.000645433 3e-05 
-9.83085e-06 -1.95359e-05 -0.00066656 5e-05 
-2.36176e-06 -6.69681e-06 -0.000755324 4e-05 
-6.93158e-05 4.79363e-05 -0.000663601 4e-05 
6.37431e-05 1.03435e-05 -0.000710912 4e-05 
-4.4916e-05 4.68567e-05 -0.000740457 3e-05 
3.11265e-05 9.00022e-05 -0.000761808 6e-05 
-5.28343e-05 0.000110002 -0.000711307 4e-05 
7.52533e-05 0.00013 -0.000687462 2e-05 
7.21536e-05 -2.19154e-06 -0.000805592 5e-05 
1.89005e-05 9.00021e-05 -0.000642434 6e-05 
9.70656e-05 1.20142e-05 -0.000638202 4e-05 
0.000150285 -3.19279e-05 -0.000750719 5e-05 
0.000226677 9.00028e-05 -0.000811134 6e-05 
0.000158121 3.37815e-05 -0.000795672 3e-05 
0.000240944 8.50831e-06 -0.000738644 5e-05 
0.000267125 0.000100003 -0.000707935 5e-05 
0.000148806 8.00026e-05 -0.000707486 7e-05 
0.000333002 -2.53112e-05 -0.000758173 5e-05 
0.000397547 9.58911e-06 -0.000673117 5e-05 
0.00028798 2.48555e-05 -0.000801256 3e-05 
0.000419469 6.31466e-05 -0.000778585 3e-05 
0.000319068 5.25127e-05 -0.000745967 3e-05 
0.000367 0.000100001 -0.000702988 5e-05 
0.000420052 0.000120002 -0.000759425 3e-05 
0.000454867 0.000110002 -0.000686282 4e-05 
0.00062409 2.5563e-06 -0.00073962 5e-05 
0.000475222 -1.72227e-06 -0.000780551 3e-05 
0.000546393 -2.89199e-05 -0.000772368 4e-05 
0.000461911 4.1646e-05 -0.000727242 4e-05 
0.000542302 5.00929e-05 -0.000760533 4e-05 
0.000593973 0.000110002 -0.000748671 4e-05 
0.000489327 0.000110002 -0.000758477 4e-05 
0.000547276 0.000110002 -0.000813627 4e-05 
0.00053462 0.000110001 -0.000692536 4e-05 
0.000535823 3.68022e-07 -0.000674016 6e-05 
0.000611557 0.000110002 -0.000670624 4e-05 
0.000604882 5.45817e-05 -0.0008105 4e-05 
0.000700181 1.7399e-06 -0.000714939 3e-05 
0.00076639 -1.85223e-05 -0.000725217 4e-05 
0.000800496 4.8505e-05 -0.00069794 4e-05 
0.000703141 1.52553e-05 -0.000808932 5e-05 
0.000785444 3.69131e-05 -0.000779657 4e-05 
0.000640737 0.000120001 -0.000799926 3e-05 
0.000786358 0.000110002 -0.000747146 4e-05 
0.000690018 9.00021e-05 -0.000729306 6e-05 
0.000738542 0.000110001 -0.000814424 4e-05 
0.00073212 3.13341e-05 -0.00066013 4e-05 
0.000762632 0.000110002 -0.000663527 4e-05 
0.000644758 3.27438e-05 -0.000638554 5e-05 
0.000856336 -1.62941e-05 -0.00072739 5e-05 
0.000950002 8.60689e-06 -0.000767607 5e-05 
0.000883582 9.00035e-05 -0.000735011 6e-05 
0.00096994 0.000120001 -0.000761409 3e-05 
0.000968964 0.000120001 -0.000701377 3e-05 
0.000950002 5.8029e-05 -0.000653369 5e-05 
-0.000463319 -5.23052e-05 -0.00049322 5e-05 
-0.000296182 -5.39809e-05 -0.000561665 7e-05 
-3.22278e-05 -6.09284e-05 -0.000567138 6e-05 
7.1927e-05 -4.85804e-05 -0.000592417 4e-05 
0.000193719 -6.24438e-05 -0.000548135 5e-05 
0.000140282 -8.60656e-05 -0.000441552 6e-05 
0.00029711 -4.37352e-05 -0.000490168 7e-05 
-0.00090068 -2.8722e-05 -0.000566628 4e-05 
-0.000898971 3.85084e-05 -0.000529769 3e-05 
-0.000950002 3.33029e-05 -0.000609291 5e-05 
-0.000875499 0.000100002 -0.000609145 5e-05 
-0.000970001 0.000120001 -0.000609475 3e-05 
-0.000854637 0.000100003 -0.000504224 5e-05 
-0.000949907 0.000100001 -0.000534669 5e-05 
-0.000960002 4.62637e-06 -0.000524571 4e-05 
-0.000828076 2.43972e-05 -0.000564038 5e-05 
-0.000710909 -3.79791e-05 -0.00062131 4e-05 
-0.000713541 -2.42086e-05 -0.00054736 3e-05 
-0.000770131 -1.28974e-05 -0.000478298 6e-05 
-0.000789664 -4.37716e-05 -0.000608506 4e-05 
-0.000662827 3.50676e-05 -0.000502478 6e-05 
-0.000671541 0.000110001 -0.00061838 4e-05 
-0.000791397 0.000110002 -0.000578708 4e-05 
-0.000708437 0.000120001 -0.000559735 3e-05 
-0.000732509 4.24834e-05 -0.000587264 5e-05 
-0.000754324 0.000100001 -0.000497312 5e-05 
-0.000648106 0.000120001 -0.000528447 3e-05 
-0.000503852 3.79796e-05 -0.000616221 4e-05 
-0.000574044 0.000100003 -0.000502919 5e-05 
-0.000607432 0.000120001 -0.000573013 3e-05 
-0.000587136 3.44601e-05 -0.000582291 5e-05 
-0.000538285 0.000110002 -0.0005849 4e-05 
-0.000496218 3.89391e-05 -0.000517547 5e-05 
-0.000456399 0.000120001 -0.000503961 3e-05 
-0.000350165 2.40681e-05 -0.000530138 3e-05 
-0.000448927 0.000100003 -0.000581063 5e-05 
-0.000387306 -6.22762e-06 -0.000479123 4e-05 
-0.000417742 -5.47926e-06 -0.000581714 6e-05 
-0.000332568 3.53193e-05 -0.00061459 4e-05 
-0.000298153 3.05227e-05 -0.000469699 5e-05 
-0.000309654 0.000110001 -0.000633863 4e-05 
-0.000352328 0.000100003 -0.000555218 5e-05 
-0.000301789 0.000120002 -0.00049652 3e-05 
-0.000144091 -3.03341e-05 -0.000543304 3e-05 
-0.000187042 -2.46222e-06 -0.000613837 4e-05 
-0.000148413 2.8528e-05 -0.000554098 3e-05 
-0.000234045 8.00031e-05 -0.000558249 7e-05 
-0.000168697 0.000120002 -0.000622509 3e-05 
-0.000118057 0.000100002 -0.00053487 5e-05 
-0.000184905 0.00013 -0.00049935 2e-05 
-0.000204964 -1.65857e-05 -0.000493251 5e-05 
-0.000109845 1.33276e-05 -0.000485677 5e-05 
-0.000134339 7.28966e-05 -0.000608353 3e-05 
-0.000108211 -5.12133e-06 -0.00060048 4e-05 
4.05306e-05 -2.97476e-05 -0.00049076 5e-05 
3.47081e-05 8.9963e-06 -0.000606544 3e-05 
-4.36772e-05 3.89785e-05 -0.000583438 4e-05 
-7.5203e-05 0.000110001 -0.000613468 4e-05 
-2.22392e-05 0.000110004 -0.000553512 4e-05 
2.35194e-05 0.000100002 -0.000475688 5e-05 
-5.12796e-05 5.91552e-05 -0.000515163 3e-05 
3.2381e-05 5.16065e-05 -0.000551058 4e-05 
-2.42586e-05 2.49609e-05 -0.000460387 4e-05 
0.000234654 6.25811e-06 -0.000550164 3e-05 
0.000185197 8.36739e-06 -0.000618356 5e-05 
0.000124292 -5.21408e-06 -0.000550261 4e-05 
9.10277e-05 4.44772e-05 -0.000497119 4e-05 
0.000209715 0.000110002 -0.000511899 4e-05 
0.000134887 0.000110002 -0.00048361 4e-05 
0.000121808 9.00032e-05 -0.000580712 6e-05 
0.000225213 0.000100002 -0.000617143 5e-05 
0.000200964 5.56539e-05 -0.000555136 3e-05 
0.000185258 2.0461e-05 -0.000473806 6e-05 
0.000313528 0.000110003 -0.000631292 4e-05 
0.000410126 -3.33251e-05 -0.000547287 5e-05 
0.000301427 1.30232e-05 -0.000610125 6e-05 
0.000342774 0.000130003 -0.000582872 2e-05 
0.000357811 3.81772e-05 -0.000531462 4e-05 
0.000293479 0.000100001 -0.000543255 5e-05 
0.000410119 9.00019e-05 -0.000599121 6e-05 
0.000381183 0.000110002 -0.000505109 4e-05 
0.000325431 6.89056e-05 -0.000465077 4e-05 
0.000446702 0.000110002 -0.000459206 4e-05 
0.000575293 -2.0081e-05 -0.00047517 3e-05 
0.000583984 3.80372e-06 -0.000578813 4e-05 
0.000466282 4.35295e-05 -0.000516632 5e-05 
0.00047069 0.000120002 -0.0005397 3e-05 
0.000469346 9.43286e-06 -0.000599866 4e-05 
0.000555859 3.65388e-05 -0.000511453 4e-05 
0.000619389 0.000100003 -0.000505451 5e-05 
0.000490565 0.000130002 -0.000494926 2e-05 
0.000535696 9.00023e-05 -0.000594234 6e-05 
0.000633673 0.000110002 -0.000593744 4e-05 
0.000710659 -3.13874e-05 -0.000599259 5e-05 
0.00077416 -3.40238e-05 -0.000473182 3e-05 
0.00069892 0.00013 -0.000638598 2e-05 
0.000780237 -1.79041e-05 -0.000541028 4e-05 
0.000650582 5.86829e-06 -0.000518312 5e-05 
0.000734473 8.00029e-05 -0.000561512 7e-05 
0.000725244 1.58773e-05 -0.000469063 4e-05 
0.000804987 -9.9609e-06 -0.000627192 5e-05 
0.000776162 0.000120002 -0.000467514 3e-05 
0.00095 -4.04647e-05 -0.000636086 5e-05 
0.000921603 2.26702e-05 -0.000550603 6e-05 
0.000832151 2.49381e-05 -0.000560248 3e-05 
0.000850276 9.00032e-05 -0.000619728 6e-05 
0.000873854 0.000110002 -0.000524629 4e-05 
0.000960001 0.000110002 -0.000580578 4e-05 
0.000950002 0.000100002 -0.000477713 5e-05 
0.000842079 0.00013 -0.000477801 2e-05 
0.000821577 4.24705e-05 -0.000472609 6e-05 
0.000960001 1.25662e-05 -0.000458825 4e-05 
-0.000888914 -7.0661e-05 -0.000340386 7e-05 
-0.000634494 -5.20165e-05 -0.000441541 5e-05 
-0.000520917 -5.79974e-05 -0.000424299 4e-05 
-0.000394046 -5.28772e-05 -0.000414483 4e-05 
-0.000123988 -7.92855e-05 -0.000450713 5e-05 
-0.000264224 -4.77088e-05 -0.000417465 5e-05 
0.000262408 -8.67476e-05 -0.000320646 7e-05 
0.000677215 -5.40884e-05 -0.000323353 5e-05 
0.000887353 -5.58601e-05 -0.000452507 6e-05 
0.000924111 -4.46281e-05 -0.000292513 4e-05 
-0.000958235 -5.79126e-06 -0.000445273 4e-05 
-0.000970001 3.63041e-05 -0.000390598 3e-05 
-0.000979995 0.00013 -0.000351785 2e-05 
-0.000867378 2.85857e-05 -0.00042154 6e-05 
-0.000950002 0.000100003 -0.00043467 5e-05 
-0.000920002 7.00039e-05 -0.000298598 8e-05 
-0.000655746 -3.38834e-05 -0.000303262 6e-05 
-0.000815435 1.11584e-05 -0.000337887 4e-05 
-0.000758177 -2.96255e-05 -0.000263394 5e-05 
-0.00073877 3.39085e-05 -0.000340087 4e-05 
-0.00066587 2.93895e-05 -0.00039267 5e-05 
-0.000746467 6.20401e-05 -0.00041609 4e-05 
-0.000709929 0.000120001 -0.000433838 3e-05 
-0.000809565 0.000110001 -0.000426968 4e-05 
-0.000680039 0.000100004 -0.0003233 5e-05 
-0.000640922 0.000110002 -0.000439992 4e-05 
-0.000733994 0.000120001 -0.000378877 3e-05 
-0.000799824 0.000100001 -0.000338058 5e-05 
-0.000742247 0.000130001 -0.000311891 2e-05 
-0.000597702 1.52225e-05 -0.00038543 2e-05 
-0.000529396 -7.29891e-06 -0.000349671 5e-05 
-0.000623296 4.98621e-05 -0.000297497 3e-05 
-0.00049767 0.000100002 -0.00043837 5e-05 
-0.000563418 1.81936e-05 -0.000446402 5e-05 
-0.000578521 9.00031e-05 -0.000364457 6e-05 
-0.000545928 0.000120001 -0.000286044 3e-05 
-0.000462269 9.00013e-05 -0.000334706 6e-05 
-0.000546575 4.79497e-05 -0.00027954 4e-05 
-0.000457035 1.13849e-05 -0.000416113 5e-05 
-0.000433487 -1.80836e-05 -0.000323501 5e-05 
-0.000388972 9.00026e-05 -0.00045198 6e-05 
-0.000339727 1.74998e-05 -0.000368696 6e-05 
-0.000364425 0.000110003 -0.00033984 4e-05 
-0.000294055 0.000110002 -0.000427675 4e-05 
-0.000178126 -2.71266e-05 -0.000401232 4e-05 
-0.000143916 2.86124e-06 -0.000296792 5e-05 
-0.000234022 7.69425e-06 -0.000339888 5e-05 
-0.000272469 0.000100002 -0.000340879 5e-05 
-0.000186548 0.000110001 -0.000316031 4e-05 
-0.000188288 8.00036e-05 -0.000424027 7e-05 
-7.20037e-05 0.000100001 -0.000446108 5e-05 
4.5288e-05 2.67826e-05 -0.000420893 4e-05 
-9.11181e-05 -7.25646e-06 -0.000389628 5e-05 
-3.49661e-05 4.94031e-05 -0.000395674 3e-05 
1.67161e-05 2.12933e-05 -0.000314812 7e-05 
-4.71284e-07 0.000110001 -0.000389524 4e-05 
-9.11215e-05 9.00036e-05 -0.000338246 6e-05 
4.82538e-05 0.000130001 -0.000360787 2e-05 
1.40399e-06 0.000120001 -0.000320213 3e-05 
8.17523e-05 0.000110004 -0.000315203 4e-05 
0.000102597 -3.60804e-06 -0.000447582 3e-05 
9.47141e-05 0.000100002 -0.000403699 5e-05 
0.000248106 0.000100004 -0.000431115 5e-05 
0.000185642 7.35001e-05 -0.000413918 2e-05 
0.000135848 5.80509e-06 -0.000364483 6e-05 
0.000170336 0.000120001 -0.000424084 3e-05 
0.000190583 0.000100003 -0.000349318 5e-05 
0.000232966 2.69062e-05 -0.000295838 5e-05 
0.000269493 1.24504e-05 -0.000387797 5e-05 
0.000268041 0.000120001 -0.000350266 3e-05 
0.000324974 2.24165e-05 -0.000287965 3e-05 
0.000412924 -2.19167e-05 -0.000371556 4e-05 
0.000383521 -1.52924e-05 -0.000297452 4e-05 
0.000312176 0.00013 -0.000432371 2e-05 
0.000395686 1.41546e-05 -0.000452188 5e-05 
0.000375998 0.000110002 -0.000418668 4e-05 
0.000325931 0.000120001 -0.000370411 3e-05 
0.000306155 0.000100001 -0.000282832 5e-05 
0.000437951 6.66528e-05 -0.000392544 4e-05 
0.000370973 0.000120002 -0.000325239 3e-05 
0.000440254 0.000110002 -0.000325348 4e-05 
0.000357734 4.75583e-05 -0.000356482 5e-05 
0.000421233 4.89844e-05 -0.000278059 3e-05 
0.000604617 -3.77305e-05 -0.000394423 5e-05 
0.000538826 -2.22701e-05 -0.000320718 5e-05 
0.000535735 0.000100002 -0.000450662 5e-05 
0.000620423 1.50904e-05 -0.000313932 4e-05 
0.000504226 -1.71589e-06 -0.000423091 6e-05 
0.000467388 0.00013 -0.000386546 2e-05 
0.000462379 2.44756e-05 -0.000329109 4e-05 
0.000536955 9.00023e-05 -0.000341126 6e-05 
0.00061792 0.000110002 -0.000415369 4e-05 
0.000631837 0.000100002 -0.000286375 5e-05 
0.000622419 6.83949e-05 -0.000359259 3e-05 
0.000600017 3.73899e-05 -0.000443774 4e-05 
0.000701211 0.000100002 -0.000447964 5e-05 
0.000773394 -1.84485e-05 -0.000394717 5e-05 
0.00068311 2.36483e-05 -0.00038598 5e-05 
0.000681641 0.000110002 -0.000360668 4e-05 
0.000779102 9.00024e-05 -0.000370941 6e-05 
0.000711272 0.000120002 -0.000298042 3e-05 
0.000726836 3.34479e-05 -0.000278913 6e-05 
0.0009384 -2.69324e-06 -0.000370853 5e-05 
0.000980001 3.68401e-05 -0.000330774 2e-05 
0.000846783 8.53927e-06 -0.000332385 5e-05 
0.000970001 6.03355e-05 -0.000408648 3e-05 
0.00097 0.000120003 -0.000402368 3e-05 
0.000883962 0.000100002 -0.000402624 5e-05 
0.000950002 0.000100002 -0.000327535 5e-05 
0.000856136 0.000100003 -0.000293059 5e-05 
0.00096 2.48152e-05 -0.0002755 4e-05 
0.000914824 6.48225e-05 -0.000278292 2e-05 
-0.000775781 -6.80888e-05 -0.000106721 5e-05 
-0.000542132 -4.96815e-05 -0.000151013 4e-05 
-0.000437457 -5.29492e-05 -0.000240625 4e-05 
-0.00018877 -3.90442e-05 -0.00021785 5e-05 
3.5522e-05 -6.29328e-05 -0.000231433 5e-05 
-2.83605e-05 -5.65407e-05 -0.000159446 4e-05 
0.000130401 -5.06352e-05 -0.000157299 4e-05 
0.000561892 -5.95769e-05 -0.000206542 5e-05 
0.000526946 -5.94759e-05 -9.15904e-05 3e-05 
-0.000869981 -1.54741e-05 -0.000108724 4e-05 
-0.000940001 2.49683e-05 -0.000167558 6e-05 
-0.000979981 0.00013 -0.00016616 2e-05 
-0.000846355 9.00022e-05 -0.000129101 6e-05 
-0.000969881 0.000120001 -0.000214098 3e-05 
-0.000952815 0.000110002 -0.000116523 4e-05 
-0.000906681 0.00013 -0.000174805 2e-05 
-0.000833085 0.000110003 -0.000226176 4e-05 
-0.000857236 4.61699e-06 -0.00021986 4e-05 
-0.000649955 -3.64122e-05 -0.000168744 7e-05 
-0.000780467 6.70288e-06 -0.000172933 5e-05 
-0.000806945 4.59559e-05 -0.000266355 4e-05 
-0.000803158 6.97093e-05 -0.000193305 2e-05 
-0.000698014 4.69042e-05 -0.000240494 5e-05 
-0.000680377 0.000120001 -0.000213188 3e-05 
-0.000744624 0.000100002 -0.000169728 5e-05 
-0.000759728 0.000110002 -0.000258092 4e-05 
-0.000700367 4.42028e-05 -0.00013329 3e-05 
-0.000644187 0.000100001 -0.000144703 5e-05 
-0.000768225 0.000120001 -9.59505e-05 3e-05 
-0.000708338 0.000120003 -0.000101295 3e-05 
-0.0005554 -3.91143e-05 -0.000258505 5e-05 
-0.00049574 -2.35146e-05 -0.000196433 3e-05 
-0.000479062 1.42575e-05 -0.000252957 4e-05 
-0.000606704 0.000100003 -0.000237411 5e-05 
-0.000554753 0.000110002 -0.000143625 4e-05 
-0.000492939 0.000100003 -0.000229406 5e-05 
-0.000553023 3.16774e-05 -0.000187917 5e-05 
-0.00047479 0.000110001 -0.00014124 4e-05 
-0.000470095 -2.93283e-05 -0.000142504 3e-05 
-0.000461056 3.57491e-05 -0.000175049 4e-05 
-0.000302338 -1.41411e-05 -0.000270203 5e-05 
-0.000405942 -3.0953e-05 -0.000170462 4e-05 
-0.000409585 2.51812e-05 -0.000128801 3e-05 
-0.000393215 0.000110003 -0.000265201 4e-05 
-0.000300052 9.00023e-05 -0.000234868 6e-05 
-0.000389961 2.35971e-05 -0.000240238 5e-05 
-0.000313295 0.000110001 -0.000133804 4e-05 
-0.000392283 0.000100002 -0.000175766 5e-05 
-0.000334199 2.12228e-05 -0.000155281 5e-05 
-0.000141558 -1.31208e-05 -0.000135665 3e-05 
-0.000217185 3.73057e-05 -0.000256585 4e-05 
-0.000249537 1.90551e-05 -0.000185732 4e-05 
-0.000201771 1.96739e-05 -0.000121563 4e-05 
-0.000145397 4.97994e-05 -0.000184922 5e-05 
-0.000190781 0.000110002 -0.000236144 4e-05 
-0.00011102 0.000110002 -0.00024231 4e-05 
-0.000226163 0.000100002 -0.000153999 5e-05 
-0.000265081 0.00013 -0.000104099 2e-05 
-8.33251e-05 2.45166e-05 -0.000124858 4e-05 
6.73561e-05 -2.22315e-06 -0.000148271 4e-05 
-8.95902e-05 -2.62762e-05 -0.000218056 5e-05 
-4.56911e-06 2.18462e-05 -0.000196719 5e-05 
-7.35233e-05 5.30396e-05 -0.000258097 3e-05 
-3.28604e-05 0.000110001 -0.000259458 4e-05 
3.88916e-05 9.00024e-05 -0.000122117 6e-05 
-6.02779e-05 0.000100003 -0.000168656 5e-05 
5.1897e-05 0.000100001 -0.00023089 5e-05 
8.04688e-05 1.47999e-05 -0.00022533 4e-05 
-4.10346e-05 0.000120001 -9.36243e-05 3e-05 
-5.7805e-06 1.37557e-06 -0.000109089 4e-05 
0.000147011 -3.78501e-05 -0.000262492 5e-05 
0.000142863 6.17762e-05 -0.000270048 5e-05 
0.000121434 3.08706e-05 -9.94829e-05 4e-05 
0.000242824 -5.29787e-08 -0.000105842 6e-05 
0.000218636 0.000110004 -0.00026439 4e-05 
0.000165327 2.96747e-05 -0.000178044 5e-05 
0.000267691 0.000120003 -0.00021547 3e-05 
0.000205216 0.000110002 -0.000185525 4e-05 
0.000130169 0.000110001 -0.000157756 4e-05 
0.000270384 4.08556e-05 -0.00020416 5e-05 
0.000213602 -1.03309e-05 -0.000227733 3e-05 
0.000198119 0.000100003 -9.63659e-05 5e-05 
0.000364671 -3.39551e-05 -0.000192832 2e-05 
0.000395007 -1.18228e-05 -0.000146036 4e-05 
0.000273987 0.000110001 -0.000144034 4e-05 
0.000319074 -1.78772e-05 -0.000180085 3e-05 
0.000453788 5.33326e-05 -0.000187823 3e-05 
0.000392466 0.000110002 -0.000259376 4e-05 
0.000332141 3.71213e-05 -0.000138802 4e-05 
0.000334618 0.000110002 -0.000197573 4e-05 
0.000360445 0.000110002 -0.000121858 4e-05 
0.000413102 0.000110002 -0.000182084 4e-05 
0.000444639 0.000120002 -9.63562e-05 3e-05 
0.000368324 2.99554e-05 -0.000221153 5e-05 
0.000427256 5.77348e-05 -0.000123198 4e-05 
0.000464818 -1.96036e-05 -0.000239383 6e-05 
0.000562325 4.02968e-05 -0.000246334 5e-05 
0.000617133 -5.50773e-06 -0.000130534 4e-05 
0.000519992 1.66069e-05 -0.000139161 6e-05 
0.000613794 6.25927e-05 -0.000187998 3e-05 
0.000482106 0.000100002 -0.000246303 5e-05 
0.00048911 0.000110002 -0.000157137 4e-05 
0.000562313 0.000110002 -0.000189405 4e-05 
0.000558955 0.000120001 -0.000259167 3e-05 
0.000607562 9.0003e-05 -0.000102501 6e-05 
0.00074401 -1.53474e-05 -0.000181836 5e-05 
0.000645679 -5.79788e-06 -0.000215884 5e-05 
0.000685115 3.61149e-05 -0.000137307 4e-05 
0.000779443 5.28858e-05 -0.000203938 3e-05 
0.000683363 0.000100001 -0.000200673 5e-05 
0.000724357 0.00013 -0.000250637 2e-05 
0.000765751 0.000110002 -0.000165859 4e-05 
0.000781109 0.000110003 -0.000244369 4e-05 
0.000704881 0.000110002 -0.000113859 4e-05 
0.000771599 4.36278e-05 -0.000105362 5e-05 
0.000716402 -2.69609e-05 -9.6967e-05 4e-05 
0.000823407 -1.26993e-05 -0.000128667 3e-05 
0.000869266 1.02294e-05 -0.000214522 7e-05 
0.000970001 4.12234e-05 -0.000178035 3e-05 
0.00085046 0.000100002 -0.000137149 5e-05 
0.000851356 0.000120001 -0.000215709 3e-05 
0.000950001 0.000100002 -0.000127586 5e-05 
0.000947818 0.000100003 -0.000227561 5e-05 
0.000960001 -3.11945e-06 -0.000124804 4e-05 
0.000890548 2.82539e-05 -0.000100477 4e-05 
-0.000463949 -3.66243e-05 -7.20936e-06 4e-05 
-0.000582333 -4.95828e-05 -7.04917e-05 5e-05 
-0.000284833 -7.29077e-05 2.00111e-05 4e-05 
-0.000420388 -5.26413e-05 -8.43177e-05 5e-05 
-0.000112199 -5.80465e-05 4.67141e-05 7e-05 
-0.000234405 -6.83347e-05 8.0497e-05 3e-05 
3.32592e-05 -3.64353e-05 4.45929e-05 3e-05 
0.000152121 -5.08986e-05 -6.99604e-05 5e-05 
0.000186031 -7.12771e-05 3.61714e-05 5e-05 
0.000261322 -5.6145e-05 2.20734e-05 2e-05 
0.000318869 -5.81733e-05 -3.34623e-05 6e-05 
0.000305969 -4.69986e-05 7.5205e-05 5e-05 
0.000502861 -4.49156e-05 -6.30113e-06 3e-05 
0.000619087 -5.63612e-05 5.59243e-05 5e-05 
-0.000872432 0.000120001 -4.83545e-05 3e-05 
-0.000970002 0.000120002 -4.94087e-05 3e-05 
-0.000921237 4.43938e-05 -4.71734e-05 6e-05 
-0.000873641 0.000100002 4.24235e-05 5e-05 
-0.000960001 0.000110001 1.91463e-05 4e-05 
-0.000950001 2.94082e-05 5.79346e-05 5e-05 
-0.000823264 -7.31076e-06 2.38349e-05 7e-05 
-0.000736206 6.1157e-05 -7.56003e-05 4e-05 
-0.000731713 -1.43459e-05 -4.95421e-05 4e-05 
-0.000800974 1.45898e-05 -8.1632e-05 4e-05 
-0.0007175 5.0027e-05 1.17269e-05 5e-05 
-0.000798896 0.000100002 -2.40162e-05 5e-05 
-0.000664784 0.000100002 8.0454e-05 5e-05 
-0.000675268 0.000110002 -4.04171e-05 4e-05 
-0.000653516 2.67435e-05 -6.67725e-05 5e-05 
-0.000777944 0.000100002 7.37644e-05 5e-05 
-0.000638993 6.27893e-05 3.15259e-06 3e-05 
-0.000508656 3.03552e-05 -8.72711e-05 6e-05 
-0.000555432 -3.50073e-05 3.9122e-05 4e-05 
-0.000516457 0.000120003 -8.58912e-05 3e-05 
-0.000491173 3.63621e-05 1.10038e-05 4e-05 
-0.000631788 7.53907e-06 6.0557e-05 5e-05 
-0.000581501 1.97202e-05 -1.30806e-05 4e-05 
-0.000586776 0.000100002 -5.34116e-05 5e-05 
-0.000624659 0.000120002 1.41517e-05 3e-05 
-0.0005564 9.0002e-05 6.45558e-05 6e-05 
-0.000543217 6.58477e-05 -1.05618e-05 2e-05 
-0.00050326 0.000110002 -1.78797e-05 4e-05 
-0.000472102 0.000130001 -6.50934e-05 2e-05 
-0.000497571 -8.63728e-08 8.19296e-05 4e-05 
-0.000429902 1.67064e-05 -8.39088e-05 2e-05 
-0.000321751 0.00013 2.28345e-06 2e-05 
-0.000328854 7.94456e-05 4.25839e-06 3e-05 
-0.00040284 9.0003e-05 -6.67327e-05 6e-05 
-0.000361484 0.00013 -1.07544e-05 2e-05 
-0.00043372 0.000100003 3.8368e-05 5e-05 
-0.000356263 0.000120001 3.89554e-05 3e-05 
-0.000288309 0.000110003 5.24496e-05 4e-05 
-0.000305411 0.000110001 -5.41942e-05 4e-05 
-0.000339338 -4.13658e-06 -2.79439e-05 6e-05 
-0.000412016 3.68963e-06 5.42528e-05 5e-05 
-0.000277005 4.39415e-05 -8.96118e-05 4e-05 
-0.000243576 -3.98752e-05 -6.8592e-05 5e-05 
-0.000227724 2.00329e-05 3.41674e-05 7e-05 
-0.000122669 0.000100002 -9.05081e-05 5e-05 
-0.000215969 0.000100003 -5.45226e-05 5e-05 
-0.00021111 0.00013 8.66426e-06 2e-05 
-0.000216377 0.000120001 5.73842e-05 3e-05 
-0.000145076 1.03516e-05 -5.22927e-05 5e-05 
-0.000144263 0.000110003 -1.0646e-06 4e-05 
-9.84704e-05 4.65746e-05 1.56438e-05 4e-05 
-6.69429e-05 -3.10675e-05 -6.90085e-05 4e-05 
6.40416e-05 -1.91775e-05 -7.01597e-05 4e-05 
-5.2233e-06 2.26129e-05 -1.13742e-05 6e-05 
-5.27961e-05 6.39507e-05 -7.57373e-05 3e-05 
-2.20348e-06 0.000120001 -4.78788e-05 3e-05 
-6.60441e-05 0.000110001 -2.09003e-05 4e-05 
-2.997e-05 0.000100002 6.41148e-05 5e-05 
3.962e-05 0.000110002 7.37632e-06 4e-05 
6.12621e-05 0.000120001 7.31901e-05 3e-05 
0.000110735 5.96176e-06 1.46196e-05 6e-05 
0.000109017 0.000120001 3.49824e-05 3e-05 
0.000238501 7.46148e-06 3.8154e-06 5e-05 
0.000172422 4.54069e-05 -4.38407e-05 3e-05 
0.000113967 0.000100003 -4.2346e-05 5e-05 
0.00020077 0.000100002 7.30253e-06 5e-05 
0.000157221 0.000120001 7.136e-05 3e-05 
0.000370523 5.30249e-05 -8.24658e-05 3e-05 
0.000410038 -2.89013e-05 2.06793e-05 5e-05 
0.00038324 -2.27248e-07 -5.79243e-05 3e-05 
0.000400856 3.67886e-05 4.3045e-05 2e-05 
0.000372851 4.72848e-05 -2.27883e-05 3e-05 
0.00042403 4.7012e-05 -5.41005e-05 3e-05 
0.00029594 9.0002e-05 -4.69467e-05 6e-05 
0.000324859 2.43402e-05 2.27102e-05 4e-05 
0.000282916 0.000110001 5.08497e-05 4e-05 
0.00042859 5.42526e-05 5.28579e-06 3e-05 
0.000393894 0.000110001 -4.91879e-05 4e-05 
0.000371337 0.000100003 3.73627e-05 5e-05 
0.000422939 5.20051e-05 8.52428e-05 3e-05 
0.000280381 3.83753e-05 8.7706e-05 4e-05 
0.000453839 -3.62086e-05 -6.89188e-05 5e-05 
0.000465996 0.000110002 -1.45312e-05 4e-05 
0.000493132 4.10414e-05 -4.46606e-05 4e-05 
0.000456436 0.000110002 6.48941e-05 4e-05 
0.000579213 -9.42024e-06 -3.80881e-05 6e-05 
0.000618835 4.34528e-05 4.98552e-05 5e-05 
0.000512083 0.000110002 -8.05089e-05 4e-05 
0.000554524 0.000100002 -1.77904e-06 5e-05 
0.000598873 0.000120004 6.17257e-05 3e-05 
0.000501803 2.15047e-05 5.44204e-05 6e-05 
0.000563131 -2.33828e-05 0.000102628 3e-05 
0.00081194 -2.5756e-05 4.95877e-06 3e-05 
0.000728656 -4.50746e-06 5.60681e-05 7e-05 
0.000690318 4.32807e-05 -4.71118e-05 5e-05 
0.000767237 3.85348e-05 -2.56446e-05 3e-05 
0.000716653 0.000110001 2.41027e-05 4e-05 
0.000643695 0.000110002 -8.71427e-06 4e-05 
0.000670747 0.000110001 8.96174e-05 4e-05 
0.000750706 0.000110002 -4.82856e-05 4e-05 
0.000814375 9.00024e-05 3.11789e-05 6e-05 
0.000817379 0.000120002 -6.71102e-05 3e-05 
0.000831018 -5.94661e-06 -5.94113e-05 4e-05 
0.000970001 6.69673e-06 2.42873e-07 3e-05 
0.000960001 4.25319e-05 -5.90509e-05 4e-05 
0.000890497 1.41414e-05 5.07596e-06 5e-05 
0.000970001 4.83313e-05 4.34459e-05 3e-05 
0.00089195 0.000100002 -4.61632e-05 5e-05 
0.000960002 0.000110001 1.18769e-05 4e-05 
0.000898334 0.000120002 4.34463e-05 3e-05 
0.000828265 4.15237e-06 5.43439e-05 3e-05 
0.00096 -1.05704e-05 7.99204e-05 4e-05 
0.000880905 4.35005e-05 8.96087e-05 4e-05 
-0.000906777 -5.73071e-05 0.000110009 6e-05 
-0.000895088 -6.47707e-05 0.000242008 5e-05 
-0.000614595 -4.41093e-05 0.000132228 4e-05 
7.63292e-05 -4.6931e-05 0.000141479 5e-05 
0.000419807 -6.02471e-05 0.000228384 6e-05 
0.000749865 -6.0707e-05 0.000201376 3e-05 
-0.00083636 3.22185e-06 0.000247277 4e-05 
-0.000947337 4.1104e-06 0.000191756 5e-05 
-0.000896155 3.94254e-05 0.000243575 3e-05 
-0.000960001 6.47803e-05 0.000257013 4e-05 
-0.000944078 0.000110003 9.75452e-05 4e-05 
-0.000970001 6.18376e-05 0.000141223 3e-05 
-0.000960002 0.000110002 0.000191023 4e-05 
-0.00085877 8.00022e-05 0.000160175 7e-05 
-0.000893989 0.000110001 0.000259995 4e-05 
-0.000664407 -1.88324e-05 0.00021555 3e-05 
-0.000816139 -3.19646e-05 0.000166947 5e-05 
-0.000755054 -3.43584e-05 0.000256043 5e-05 
-0.00072892 6.66721e-06 0.000112172 6e-05 
-0.000696875 3.02564e-05 0.000203885 3e-05 
-0.000722818 0.00013 0.000105629 2e-05 
-0.000766597 3.5358e-05 0.000200309 4e-05 
-0.000712886 0.000100004 0.000168125 5e-05 
-0.000643972 3.92598e-05 0.000248831 4e-05 
-0.000701809 0.000110002 0.000256878 4e-05 
-0.000635238 0.000110003 0.000212517 4e-05 
-0.000605343 -1.00634e-05 0.000209676 3e-05 
-0.000541929 7.13646e-07 0.000160698 5e-05 
-0.000633265 4.09943e-05 0.000154781 5e-05 
-0.000564567 3.86199e-05 0.000239123 4e-05 
-0.000477303 0.000120001 0.00016746 3e-05 
-0.000554477 0.000100001 0.000174082 5e-05 
-0.000518001 0.000120002 0.000242415 3e-05 
-0.000465376 4.79648e-05 0.00023054 6e-05 
-0.000480016 5.95345e-05 0.000132298 4e-05 
-0.000580974 0.000110002 0.000271298 4e-05 
-0.00042557 -3.6877e-05 0.000155595 6e-05 
-0.000314769 -4.01889e-05 0.000109639 6e-05 
-0.000449793 0.000120003 0.00011414 3e-05 
-0.000300201 3.06637e-06 0.000231362 7e-05 
-0.0004243 0.000120003 0.000195575 3e-05 
-0.000359639 8.00019e-05 0.000130627 7e-05 
-0.000368595 0.000100002 0.000249395 5e-05 
-0.000288094 0.000110002 0.00020861 4e-05 
-0.000123459 -1.26728e-05 0.00024069 5e-05 
-0.000201724 1.82914e-06 0.000248694 3e-05 
-0.00020096 -2.62335e-05 0.000152669 6e-05 
-0.00013776 9.00027e-05 9.66973e-05 6e-05 
-0.000241332 0.000100002 0.000132367 5e-05 
-0.00022969 0.000120003 0.000245878 3e-05 
-0.000128646 0.000120003 0.000181057 3e-05 
-0.000183209 6.76516e-05 0.000207167 5e-05 
-9.6362e-05 3.68634e-05 0.000170604 4e-05 
-0.000155149 5.14027e-05 0.000269204 2e-05 
6.05028e-05 -3.85067e-05 0.00026271 4e-05 
-8.65854e-05 9.00031e-05 0.000254749 6e-05 
-3.06469e-05 -3.16114e-05 0.000208639 5e-05 
3.48649e-05 2.87517e-05 9.09394e-05 5e-05 
-6.12321e-05 2.3601e-05 9.99654e-05 4e-05 
-6.27366e-05 0.000110002 0.000159711 4e-05 
2.93867e-05 0.000110001 0.000134703 4e-05 
1.41795e-07 0.000110004 0.000209164 4e-05 
-1.66788e-05 4.46755e-05 0.000162978 4e-05 
7.37833e-05 4.24541e-05 0.000205537 6e-05 
0.000212134 -6.24135e-06 0.000218746 3e-05 
0.000271188 -7.18803e-06 0.000164787 5e-05 
0.000109783 7.76691e-05 0.000100642 4e-05 
9.22782e-05 0.00012 0.000163768 3e-05 
0.000172211 1.4064e-06 0.000117572 6e-05 
0.000117016 0.000120001 0.000220357 3e-05 
0.000165926 7.42076e-05 0.000150181 2e-05 
0.000147926 0.000120001 0.000141297 3e-05 
0.000220933 0.000100002 0.000115413 5e-05 
0.00017346 5.03975e-05 0.000204736 4e-05 
0.000184048 0.000120001 0.000189203 3e-05 
0.000176105 0.000110002 0.000258028 4e-05 
0.000264599 9.00027e-05 0.000215878 6e-05 
0.000422945 -3.74084e-05 0.000119477 5e-05 
0.000360296 2.21391e-05 9.43981e-05 4e-05 
0.000363809 2.42247e-05 0.000185623 5e-05 
0.00036253 0.000110002 0.000212832 4e-05 
0.000331331 0.000100003 0.000129009 5e-05 
0.000448908 9.00034e-05 0.000162583 6e-05 
0.000324464 3.49699e-05 0.000254445 3e-05 
0.000405266 0.000120004 0.00026736 3e-05 
0.000411509 4.0386e-05 0.000272016 5e-05 
0.000605983 -3.52045e-05 0.000180892 6e-05 
0.000460638 2.147e-05 0.000123016 2e-05 
0.00056276 4.04288e-05 0.0001314 4e-05 
0.00047414 0.000110002 0.000259892 4e-05 
0.000499908 -6.61102e-06 0.000175405 5e-05 
0.000602239 0.000110003 0.000130924 4e-05 
0.000576651 8.00019e-05 0.000233611 7e-05 
0.000527629 0.000110001 0.000101648 4e-05 
0.000482681 4.58053e-05 0.000233332 3e-05 
0.000756172 -3.84015e-05 0.000146035 3e-05 
0.000660236 3.03072e-05 0.000210296 3e-05 
0.000802446 3.47252e-05 0.000180573 2e-05 
0.000729315 3.30282e-05 0.000170043 5e-05 
0.000803681 5.83281e-05 0.000125424 4e-05 
0.00064698 4.38128e-05 0.000135338 4e-05 
0.000676245 0.000110002 0.000169427 4e-05 
0.000794976 0.000100003 0.000204717 5e-05 
0.000702708 9.00018e-05 0.000263763 6e-05 
0.000742614 0.000110001 0.000124761 4e-05 
0.000792835 2.5673e-05 0.000271576 5e-05 
0.000705445 -1.94931e-05 0.000253608 5e-05 
0.00080961 -2.43339e-05 0.000198654 4e-05 
0.000818192 -2.00997e-05 0.00011923 4e-05 
0.000841954 -3.63182e-05 0.000259566 3e-05 
0.000897584 -2.47202e-05 0.000127919 4e-05 
0.000918393 -1.27857e-05 0.000257754 5e-05 
0.000950001 0.000100001 0.000101153 5e-05 
0.00096 2.58401e-05 0.000151154 4e-05 
0.000970001 4.83296e-05 0.000258856 3e-05 
0.000864502 0.000110003 0.000130939 4e-05 
0.000950001 0.000100002 0.000201152 5e-05 
0.000872098 3.91782e-05 0.000185947 5e-05 
0.000873941 0.000100001 0.00026607 5e-05 
-0.000970001 -4.27652e-05 0.000375844 3e-05 
-0.000931636 -5.78777e-05 0.000432409 4e-05 
-0.000307194 -5.88927e-05 0.000321983 4e-05 
0.000623265 -5.76212e-05 0.000406571 4e-05 
0.000775549 -6.00478e-05 0.00029286 4e-05 
0.000909584 -4.78028e-05 0.000351006 5e-05 
-0.000861269 -2.57792e-05 0.000444125 2e-05 
-0.000876393 -1.35539e-05 0.000376881 5e-05 
-0.000950001 -1.0396e-05 0.000305473 5e-05 
-0.000827078 4.85443e-06 0.000316639 3e-05 
-0.000960001 2.53523e-05 0.00038849 4e-05 
-0.000881881 4.81047e-05 0.000311552 4e-05 
-0.000843377 9.00025e-05 0.000393783 6e-05 
-0.000950001 0.000100003 0.000339225 5e-05 
-0.000960001 0.000110001 0.000428104 4e-05 
-0.000829621 1.22691e-05 0.000437005 3e-05 
-0.000712872 3.77804e-05 0.000289457 4e-05 
-0.000773689 2.47623e-05 0.000335432 3e-05 
-0.000797445 9.00031e-05 0.000278168 6e-05 
-0.000712986 -1.88784e-05 0.000363901 5e-05 
-0.000780604 2.65347e-05 0.000405242 3e-05 
-0.000774249 0.000120002 0.00044299 3e-05 
-0.000725042 9.0003e-05 0.000373863 6e-05 
-0.000647028 8.91283e-05 0.000311311 4e-05 
-0.000622746 -4.07587e-05 0.000304922 6e-05 
-0.000540285 1.87797e-05 0.000385603 4e-05 
-0.000629951 3.1635e-05 0.000387426 5e-05 
-0.000574106 4.55918e-05 0.000318244 4e-05 
-0.000502442 0.000100003 0.000320081 5e-05 
-0.000636167 0.000110002 0.000431238 4e-05 
-0.000591434 0.000110001 0.000364914 4e-05 
-0.00051986 0.000100003 0.00041855 5e-05 
-0.000459447 1.3634e-05 0.000346377 5e-05 
-0.000454385 2.92099e-05 0.000445026 5e-05 
-0.000405802 -3.27131e-05 0.000275725 5e-05 
-0.000362828 -2.09674e-05 0.000436413 4e-05 
-0.000350311 2.70114e-05 0.000349573 6e-05 
-0.000304739 0.000110001 0.000388577 4e-05 
-0.00045218 0.000120001 0.000380877 3e-05 
-0.000403215 0.000110001 0.000331865 4e-05 
-0.000283359 0.000100002 0.000301728 5e-05 
-0.000387247 0.000100003 0.000423109 5e-05 
-0.000389259 3.01324e-05 0.000419382 2e-05 
-0.000292446 4.31383e-05 0.000430743 4e-05 
-0.000258133 -2.51987e-05 0.000407236 4e-05 
-0.000112357 3.40499e-05 0.000320359 3e-05 
-0.000255343 1.23555e-06 0.000331782 4e-05 
-0.00012389 -1.69174e-05 0.000393632 6e-05 
-0.00021106 5.01704e-05 0.000392971 5e-05 
-0.000177877 1.02558e-05 0.000313965 4e-05 
-9.89128e-05 0.000100001 0.000363597 5e-05 
-0.00018376 0.000100002 0.000310672 5e-05 
-0.000239287 0.000120001 0.000365831 3e-05 
-0.000172308 0.000120002 0.000388355 3e-05 
-2.55509e-05 -3.29368e-05 0.000385365 3e-05 
3.93344e-05 -7.33749e-06 0.000391244 4e-05 
8.74469e-05 3.95964e-05 0.000349567 3e-05 
-1.30477e-05 1.16883e-05 0.000308215 6e-05 
-2.78568e-05 0.000120003 0.000394451 3e-05 
2.05082e-05 8.69562e-05 0.000272042 3e-05 
-1.78021e-05 0.000110001 0.000325904 4e-05 
4.9061e-05 0.000100002 0.000385311 5e-05 
-3.29229e-05 4.21259e-05 0.000412033 5e-05 
-5.68993e-05 0.000120001 0.000446995 3e-05 
7.5024e-05 2.27367e-05 0.000293341 3e-05 
0.000105173 -3.71126e-05 0.000403923 3e-05 
0.000247769 1.20142e-05 0.000276163 4e-05 
0.000100787 -2.7498e-05 0.000334726 4e-05 
0.000159513 2.35446e-05 0.000289496 5e-05 
0.000189753 -9.55573e-06 0.000389943 6e-05 
0.000113572 0.000120001 0.000429181 3e-05 
0.000136705 8.24634e-05 0.000374785 4e-05 
9.54726e-05 0.000100003 0.000296735 5e-05 
0.000232361 9.00018e-05 0.000338245 6e-05 
0.000265101 4.61085e-05 0.000424927 4e-05 
0.000194878 0.000100002 0.000441176 5e-05 
0.000315351 3.77804e-06 0.000349406 6e-05 
0.000420384 0.000100002 0.000351809 5e-05 
0.000334951 0.000100002 0.000299841 5e-05 
0.00033266 0.000100003 0.000399813 5e-05 
0.00041212 0.000110003 0.000440867 4e-05 
0.000410252 1.47912e-05 0.000378943 4e-05 
0.000619564 -2.65269e-05 0.000279583 4e-05 
0.000488926 -3.50025e-05 0.000415446 6e-05 
0.000504437 -1.21307e-05 0.000298673 6e-05 
0.000598916 2.79278e-05 0.000360873 6e-05 
0.000624552 0.000120001 0.000318035 3e-05 
0.000509949 9.00015e-05 0.000446241 6e-05 
0.000519295 0.000100002 0.000337098 5e-05 
0.000604945 0.000110002 0.000417681 4e-05 
0.000474529 4.6302e-05 0.000375986 3e-05 
0.000683194 3.1743e-05 0.000329528 3e-05 
0.000724915 5.10915e-06 0.000336601 2e-05 
0.000730161 2.57678e-05 0.000302753 2e-05 
0.000694977 8.02409e-06 0.000429979 6e-05 
0.000792482 0.000110004 0.000303004 4e-05 
0.000755933 5.51195e-05 0.000348298 4e-05 
0.000681365 0.000100003 0.000371207 5e-05 
0.000750996 0.000110001 0.000427345 4e-05 
0.00066752 0.000120001 0.00044742 3e-05 
0.000806356 -2.47241e-05 0.000381194 6e-05 
0.000856416 -5.35683e-06 0.000308917 3e-05 
0.000904396 4.19949e-05 0.000327776 4e-05 
0.000960002 0.000110002 0.000290421 4e-05 
0.000840825 9.00024e-05 0.000388223 6e-05 
0.000960001 1.20349e-05 0.000395472 4e-05 
0.000950003 0.000100002 0.000379301 5e-05 
-0.000960001 -4.95673e-05 0.000506747 4e-05 
-0.000762358 -5.53152e-05 0.000604665 6e-05 
-0.000643715 -5.29725e-05 0.000586832 6e-05 
-0.000474857 -5.74587e-05 0.000509595 6e-05 
-0.000549752 -4.9377e-05 0.000626718 4e-05 
5.92267e-05 -4.72454e-05 0.000495389 4e-05 
0.000165873 -6.11155e-05 0.000632501 6e-05 
0.000300118 -6.158e-05 0.000547446 5e-05 
0.000459778 -8.39564e-05 0.000564027 6e-05 
0.00073117 -4.53826e-05 0.000506384 4e-05 
0.000865946 -4.69995e-05 0.000568769 5e-05 
-0.000883045 -1.44822e-05 0.000535314 2e-05 
-0.000940001 5.39425e-06 0.000587858 6e-05 
-0.000909363 3.04347e-05 0.00047457 6e-05 
-0.000903434 0.000120003 0.000468102 3e-05 
-0.000960002 0.000110001 0.000508102 4e-05 
-0.000969981 0.000120001 0.000578724 3e-05 
-0.00089392 0.000110003 0.000553188 4e-05 
-0.000838616 0.000110001 0.000492564 4e-05 
-0.000827013 3.6174e-05 0.000561664 6e-05 
-0.00082923 0.000120001 0.000596078 3e-05 
-0.000790219 -2.14996e-05 0.000488726 4e-05 
-0.000701606 2.11535e-05 0.000456386 5e-05 
-0.000747358 2.27315e-05 0.00052199 3e-05 
-0.000693142 -5.25799e-07 0.000532925 3e-05 
-0.00070476 2.60353e-05 0.000596639 4e-05 
-0.000701917 6.17695e-05 0.000525307 3e-05 
-0.000784864 5.57676e-05 0.000468702 4e-05 
-0.000742697 6.31874e-05 0.000554203 2e-05 
-0.000765091 0.000110001 0.000524088 4e-05 
-0.00075343 0.000100002 0.000612765 5e-05 
-0.000706146 0.000110001 0.000470003 4e-05 
-0.000697444 0.000120002 0.000539047 3e-05 
-0.000653899 0.000100002 0.000603107 5e-05 
-0.000622951 -2.20031e-05 0.00046351 4e-05 
-0.000624781 4.07349e-05 0.000528012 5e-05 
-0.000567022 3.50362e-05 0.000459229 4e-05 
-0.000559017 -1.79013e-05 0.000546365 4e-05 
-0.00063558 0.000120001 0.000527845 3e-05 
-0.000536212 4.34378e-05 0.000521519 3e-05 
-0.000582426 2.20616e-05 0.000611594 4e-05 
-0.000558363 0.000100003 0.000573572 5e-05 
-0.000578187 0.000110001 0.000486356 4e-05 
-0.000480711 0.000100002 0.000510565 5e-05 
-0.000471234 2.5701e-05 0.000609449 7e-05 
-0.000499227 0.00013 0.000621005 2e-05 
-0.00045182 0.000120002 0.000582434 3e-05 
-0.000350667 4.60569e-05 0.000469494 3e-05 
-0.000341433 -1.23227e-05 0.000523404 5e-05 
-0.000376309 9.00016e-05 0.000543731 6e-05 
-0.000311329 0.000110002 0.000470399 4e-05 
-0.000291602 0.000120003 0.000538796 3e-05 
-0.000287454 1.04393e-05 0.000604447 5e-05 
-0.000377266 -3.11984e-05 0.000603776 4e-05 
-0.000325868 0.000110002 0.00063364 4e-05 
-0.000250378 -3.51177e-05 0.000486239 4e-05 
-0.000125448 -3.78905e-05 0.00061276 3e-05 
-9.22498e-05 -3.87686e-05 0.000511736 5e-05 
-0.000216558 -2.08992e-05 0.000558714 4e-05 
-0.00017421 1.28202e-05 0.000486815 5e-05 
-0.000192286 0.000110001 0.000525837 4e-05 
-0.000135664 0.000100003 0.000456598 5e-05 
-0.000262876 4.90553e-05 0.000515539 5e-05 
-0.000232514 0.000110002 0.000456687 4e-05 
-0.000243271 0.000100002 0.000599325 5e-05 
-0.000148204 4.57369e-05 0.000588501 6e-05 
-9.75892e-05 3.7983e-05 0.000489818 3e-05 
-1.29666e-05 -2.26574e-05 0.000471233 4e-05 
-7.05987e-05 0.000100003 0.000532537 5e-05 
2.333e-05 2.18474e-05 0.000540528 5e-05 
7.35622e-05 8.31689e-05 0.000529748 3e-05 
-3.76441e-05 3.95192e-05 0.000491849 3e-05 
2.22876e-05 5.68155e-05 0.000612472 3e-05 
-5.26934e-05 -7.95149e-06 0.000598254 5e-05 
1.13864e-05 0.000110002 0.000568289 4e-05 
1.37846e-05 0.000100002 0.00047888 5e-05 
8.75128e-05 0.000110002 0.000592877 4e-05 
9.09422e-05 0.000120004 0.000485692 3e-05 
0.000218083 -2.46638e-05 0.000550137 4e-05 
0.000101139 3.51961e-05 0.000457356 6e-05 
0.000193317 2.82694e-05 0.000495506 4e-05 
0.000134117 7.22167e-05 0.000593398 2e-05 
0.000206026 4.75439e-05 0.000582394 4e-05 
0.000153035 0.000100002 0.000531997 5e-05 
0.00021373 0.000120001 0.000580121 3e-05 
0.000229538 0.000120002 0.000519866 3e-05 
0.00012016 1.0765e-05 0.000562908 5e-05 
0.000268004 8.23275e-08 0.000490294 4e-05 
0.000269454 6.50827e-05 0.000536906 4e-05 
0.000426925 3.26878e-05 0.000455112 4e-05 
0.000279556 0.000100001 0.000620946 5e-05 
0.00028431 1.27923e-05 0.000595598 4e-05 
0.000317601 5.96452e-05 0.000578238 2e-05 
0.000279054 0.000110002 0.00047141 4e-05 
0.000382383 -5.9446e-06 0.000559153 5e-05 
0.000334299 0.000110002 0.000550215 4e-05 
0.000343547 4.8712e-05 0.000484963 5e-05 
0.000337403 0.00013 0.000490464 2e-05 
0.000397624 0.000110003 0.000628915 4e-05 
0.000431373 9.00029e-05 0.000536934 6e-05 
0.000350774 4.52194e-05 0.000626107 4e-05 
0.000430273 3.7306e-05 0.000621915 4e-05 
0.000579817 -4.09422e-05 0.000616247 5e-05 
0.000584933 1.65132e-06 0.000477404 6e-05 
0.000508786 1.41804e-05 0.000555842 5e-05 
0.000477433 0.000110002 0.00062341 4e-05 
0.000535316 7.65299e-05 0.000602698 3e-05 
0.000576225 0.000130003 0.000466414 2e-05 
0.000594925 3.53806e-05 0.00057101 4e-05 
0.00053395 0.000110001 0.000541235 4e-05 
0.00061886 0.000100002 0.000513124 5e-05 
0.000596724 0.000110002 0.000599784 4e-05 
0.000657537 -2.72126e-05 0.000554839 5e-05 
0.000657567 3.00921e-05 0.000595044 2e-05 
0.000808328 -3.61068e-05 0.000487401 4e-05 
0.000667865 7.52419e-05 0.000469702 2e-05 
0.000786477 3.94692e-05 0.000455247 4e-05 
0.000669768 5.18372e-05 0.000551705 3e-05 
0.00076997 0.000100002 0.000596738 5e-05 
0.000718832 0.000100002 0.000510804 5e-05 
0.000676985 0.000110001 0.000589978 4e-05 
0.000733511 2.08925e-05 0.000551128 4e-05 
0.000708733 4.0264e-05 0.000624684 4e-05 
0.000789527 6.31962e-07 0.000625897 5e-05 
0.000805306 0.000110002 0.000487963 4e-05 
0.000673352 -1.95761e-05 0.000632887 3e-05 
0.000960002 4.89673e-05 0.000466436 4e-05 
0.00097 -1.15602e-05 0.000500146 3e-05 
0.000852342 0.000130002 0.000456539 2e-05 
0.000821114 3.70246e-05 0.000538276 5e-05 
0.00083725 0.000105217 0.000578131 2e-05 
0.0008774 1.40458e-05 0.00045888 5e-05 
0.000873175 0.000110002 0.000530314 4e-05 
0.000867157 0.000130001 0.000587686 2e-05 
0.000922033 3.27102e-05 0.000546397 5e-05 
0.000923522 0.000110002 0.00059248 4e-05 
0.000960001 0.000110002 0.000520244 4e-05 
0.000908867 0.000110002 0.000458721 4e-05 
0.000960001 4.76114e-05 0.000626777 4e-05 
0.000885525 1.84086e-05 0.000627406 4e-05 
-0.000747253 -3.86606e-05 0.000754927 5e-05 
-0.000145092 -5.8181e-05 0.000783892 5e-05 
-3.52563e-05 -5.62024e-05 0.000675533 4e-05 
0.000778832 -4.87612e-05 0.000756678 4e-05 
0.000926007 -4.95444e-05 0.000757973 5e-05 
-0.000917786 0.000100003 0.000639386 5e-05 
-0.00098 8.47571e-05 0.000667615 2e-05 
-0.000940002 2.7538e-05 0.00077115 6e-05 
-0.000960001 0.000110001 0.000718238 4e-05 
-0.000939273 0.00013 0.000771161 2e-05 
-0.000980001 0.000130001 0.000771151 2e-05 
-0.0008699 0.000100003 0.000727173 5e-05 
-0.000860932 2.19356e-05 0.000665329 5e-05 
-0.000880409 0.000110001 0.000815996 4e-05 
-0.000861476 -4.35862e-06 0.000740882 3e-05 
-0.000841871 0.000120001 0.000654785 3e-05 
-0.000801527 0.000120003 0.000763572 3e-05 
-0.000786051 0.000110002 0.000696044 4e-05 
-0.000760102 2.54715e-05 0.000679285 5e-05 
-0.000723669 0.000100003 0.00079005 5e-05 
-0.000695124 0.000100002 0.000694212 5e-05 
-0.000654315 1.54827e-05 0.000777967 6e-05 
-0.000804678 4.08221e-05 0.000774537 5e-05 
-0.000644526 3.27951e-05 0.000662228 4e-05 
-0.000554719 -2.26355e-05 0.000722947 6e-05 
-0.000632185 0.000130001 0.000700429 2e-05 
-0.00062935 0.000110001 0.000756926 4e-05 
-0.000559517 0.000120002 0.000767568 3e-05 
-0.000565156 9.00025e-05 0.000682905 6e-05 
-0.000502865 0.000120001 0.000747769 3e-05 
-0.000467326 0.000110002 0.00068829 4e-05 
-0.00052515 5.96004e-05 0.00077595 4e-05 
-0.000465617 -1.01719e-06 0.000789087 4e-05 
-0.000479127 0.000110001 0.000817682 4e-05 
-0.000474107 3.63974e-05 0.000718888 4e-05 
-0.000405793 0.000110002 0.000637168 4e-05 
-0.000365766 4.07378e-05 0.000636833 4e-05 
-0.000386811 -3.19516e-05 0.000716664 7e-05 
-0.000324178 5.84429e-05 0.000702839 4e-05 
-0.000336814 0.00013 0.000730289 2e-05 
-0.000286096 0.000100003 0.000772999 5e-05 
-0.000400183 9.00036e-05 0.000759646 6e-05 
-0.000333009 2.84025e-05 0.000800791 4e-05 
-0.000116494 -1.01747e-06 0.000694369 6e-05 
-0.000237098 1.55994e-06 0.000775788 6e-05 
-0.000265378 0.000110003 0.000685991 4e-05 
-0.000149837 0.000110002 0.000665098 4e-05 
-0.000218285 3.44997e-05 0.000672537 5e-05 
-0.000190109 0.000100001 0.000744959 5e-05 
5.30893e-05 -2.17249e-05 0.000643813 6e-05 
-1.19601e-05 1.58555e-05 0.000724163 5e-05 
6.67836e-05 3.68367e-05 0.000783075 5e-05 
-5.33093e-05 9.00028e-05 0.000648296 6e-05 
6.02919e-05 9.00027e-05 0.000686997 6e-05 
1.51766e-05 0.000110003 0.000773969 4e-05 
-8.23635e-05 9.00032e-05 0.000764725 6e-05 
-1.35458e-05 6.11205e-05 0.000815022 3e-05 
-4.27758e-05 -1.13285e-05 0.000804233 4e-05 
0.000145399 -1.91895e-05 0.00075699 5e-05 
0.000134917 2.39552e-05 0.000678705 4e-05 
0.000229592 2.18622e-05 0.000666474 5e-05 
0.000170532 0.000100003 0.000646331 5e-05 
0.000238812 1.51361e-05 0.00076676 5e-05 
0.000158979 9.00014e-05 0.000755264 6e-05 
0.000262511 0.000100004 0.00071948 5e-05 
0.000422286 -2.74362e-05 0.00072764 6e-05 
0.000322648 1.41603e-05 0.000799479 4e-05 
0.000326525 2.3759e-05 0.000710078 5e-05 
0.000341807 0.000100002 0.000780406 5e-05 
0.000443682 9.00027e-05 0.000715393 6e-05 
0.000347343 0.000110001 0.000691136 4e-05 
0.000411657 0.00013 0.000783682 2e-05 
0.000413175 4.94077e-05 0.000801538 4e-05 
0.000547237 2.90123e-05 0.000637336 3e-05 
0.000484243 -1.97643e-05 0.000637085 4e-05 
0.000492368 4.8057e-05 0.000652386 3e-05 
0.000610808 1.93279e-05 0.000742674 4e-05 
0.000624353 3.92983e-05 0.00065597 5e-05 
0.000548079 0.000100002 0.000678265 5e-05 
0.000524862 1.09245e-05 0.000717326 5e-05 
0.000555016 9.00025e-05 0.000787591 6e-05 
0.000738019 -3.8133e-05 0.000688698 4e-05 
0.000638978 0.000120001 0.000654687 3e-05 
0.000649096 0.000100003 0.000731482 5e-05 
0.000693584 1.59533e-05 0.000688554 3e-05 
0.000709014 1.98454e-05 0.000777134 6e-05 
0.000758435 5.44556e-05 0.000690981 4e-05 
0.000707648 0.000110002 0.000663868 4e-05 
0.000737564 0.000110003 0.000744635 4e-05 
0.000776193 0.000120001 0.000673948 3e-05 
0.000816293 0.000110003 0.000730444 4e-05 
0.00090168 -3.51159e-05 0.000669525 3e-05 
0.000960001 -1.98292e-06 0.000689547 4e-05 
0.000918766 4.36842e-05 0.000784885 2e-05 
0.00098 3.25212e-05 0.000761462 2e-05 
0.000845963 1.51744e-05 0.000719188 6e-05 
0.000854787 0.000100002 0.00064971 5e-05 
0.000939692 9.0002e-05 0.000723106 6e-05 
0.000970002 0.000120001 0.000643853 3e-05 
0.00098 6.34029e-05 0.000786884 2e-05 
0.000862041 9.0002e-05 0.000817086 6e-05 
0.000843111 -3.34948e-05 0.000817792 5e-05 
-0.000715393 -4.37358e-05 0.000927752 6e-05 
-0.000567131 -4.27197e-05 0.000982859 4e-05 
-0.000120616 -6.22445e-05 0.000995594 5e-05 
-9.48993e-05 -6.05345e-05 0.000895731 5e-05 
0.000187042 -4.63187e-05 0.000878602 5e-05 
0.000250155 -5.6337e-05 0.000980779 4e-05 
0.000273375 -5.51594e-05 0.000828919 5e-05 
0.000362208 -6.45896e-05 0.000955253 4e-05 
0.000748774 -4.9904e-05 0.00083675 4e-05 
0.000719573 -6.6814e-05 0.000930885 6e-05 
0.000811999 -4.20862e-05 0.000901804 4e-05 
0.00096 -8.6603e-05 0.000884789 4e-05 
-0.000884469 -1.82263e-05 0.000981019 4e-05 
-0.00097 -1.40358e-05 0.0009139 3e-05 
-0.00098 -5.08937e-06 0.000832269 2e-05 
-0.000884805 9.12387e-06 0.000852476 4e-05 
-0.000960001 0.000110001 0.000824064 4e-05 
-0.00096 3.83257e-05 0.000868533 4e-05 
-0.000959977 0.000110001 0.000904063 4e-05 
-0.000880385 0.000110001 0.000895995 4e-05 
-0.000970001 0.000120002 0.000972614 3e-05 
-0.000948003 4.34678e-05 0.000964983 5e-05 
-0.000840113 6.13042e-05 0.000865884 3e-05 
-0.000867406 3.67826e-05 0.000925497 4e-05 
-0.000868476 0.000100003 0.000989542 5e-05 
-0.000824372 -1.58311e-05 0.000827475 3e-05 
-0.000821913 3.01919e-06 0.000884384 3e-05 
-0.000794284 1.40495e-05 0.000948655 4e-05 
-0.000752538 3.42178e-05 0.00085961 5e-05 
-0.000674942 0.000120001 0.000850265 3e-05 
-0.000802206 0.000110001 0.000832847 4e-05 
-0.000678123 8.00031e-05 0.000941864 7e-05 
-0.000794759 0.000100002 0.000921977 5e-05 
-0.000495367 -1.31274e-05 0.000914909 4e-05 
-0.000515434 2.35055e-05 0.00084668 4e-05 
-0.000633683 4.62305e-06 0.000875211 4e-05 
-0.000570917 0.000120001 0.00092994 3e-05 
-0.000590119 9.00024e-05 0.000846708 6e-05 
-0.000497508 0.000100002 0.000905215 5e-05 
-0.000566404 3.62566e-05 0.000939707 5e-05 
-0.000596775 0.000120001 0.000984082 3e-05 
-0.00045025 0.000120002 0.000971919 3e-05 
-0.000364189 -2.99277e-05 0.000861826 5e-05 
-0.000441812 4.06352e-05 0.000963295 5e-05 
-0.000364631 -2.2943e-05 0.000964189 5e-05 
-0.000428867 4.61415e-05 0.000856357 5e-05 
-0.000408702 0.000110003 0.000916481 4e-05 
-0.000340064 0.000120002 0.000931387 3e-05 
-0.000344643 0.000100002 0.000854064 5e-05 
-0.000280059 0.000110002 0.000966017 4e-05 
-0.00028346 2.74543e-05 0.00090968 6e-05 
-0.000350796 6.54523e-05 0.000973916 4e-05 
-0.000217563 -3.80776e-05 0.000946599 4e-05 
-0.000197736 -1.38749e-05 0.000883981 3e-05 
-0.000145525 1.50524e-05 0.000937246 5e-05 
-0.000118879 1.96298e-05 0.000840972 5e-05 
-0.000202222 5.01108e-05 0.000855952 4e-05 
-0.000255248 0.000110002 0.000856954 4e-05 
-0.000157097 0.000110002 0.000828086 4e-05 
-0.000197874 0.000100003 0.000930729 5e-05 
-0.000102594 0.000100001 0.000899003 5e-05 
-0.000122018 0.000110001 0.00098631 4e-05 
2.23438e-05 -3.38865e-05 0.000986525 5e-05 
5.42654e-05 -2.04159e-05 0.000851378 4e-05 
4.54286e-05 0.000100002 0.000858138 5e-05 
-4.65204e-05 0.000120001 0.000841651 3e-05 
-2.37493e-05 2.33545e-05 0.000896074 6e-05 
-2.43927e-05 0.000120001 0.000897425 3e-05 
1.44591e-05 0.000100002 0.000965101 5e-05 
0.000249302 0.000100002 0.000818602 5e-05 
9.17176e-05 0.000120001 0.000959372 3e-05 
0.000191773 -6.16395e-06 0.000959008 4e-05 
9.13704e-05 2.99299e-05 0.000929406 6e-05 
0.00013303 1.42157e-05 0.00083964 4e-05 
0.000204901 4.03092e-05 0.00089523 4e-05 
0.000242154 0.000110002 0.000907757 4e-05 
0.000145258 0.000100003 0.000863943 5e-05 
0.000244671 0.000120001 0.000981888 3e-05 
0.000170137 0.000100002 0.000960797 5e-05 
0.000438363 -2.54422e-05 0.000982962 5e-05 
0.000377816 1.59193e-06 0.00088193 6e-05 
0.000292751 -3.90201e-05 0.000915314 4e-05 
0.000277504 2.75542e-05 0.000864151 4e-05 
0.000272557 3.94074e-05 0.000954571 5e-05 
0.000419472 0.000110001 0.000886847 4e-05 
0.000328635 0.000100002 0.000879533 5e-05 
0.000381143 8.00039e-05 0.000985564 7e-05 
0.000296196 0.000120001 0.000951142 3e-05 
0.000537079 -2.20799e-05 0.000960405 5e-05 
0.000493216 -6.85452e-06 0.000822219 6e-05 
0.000462302 0.000110002 0.000819277 4e-05 
0.000570736 3.87386e-05 0.000888515 5e-05 
0.000587373 0.000120001 0.000866032 3e-05 
0.000571467 0.000130001 0.000912367 2e-05 
0.000473305 4.2528e-05 0.000918472 5e-05 
0.000516824 0.000110003 0.000877819 4e-05 
0.000536322 0.000110001 0.000956692 4e-05 
0.000625107 0.000100003 0.000945875 5e-05 
0.000620585 -1.7609e-05 0.000915717 3e-05 
0.000472784 0.000120002 0.000984309 3e-05 
0.000617598 -2.05791e-05 0.000823055 5e-05 
0.000569842 6.06549e-05 0.000963124 2e-05 
0.000764108 0.000110001 0.000820101 4e-05 
0.00065656 0.000100002 0.000831202 5e-05 
0.00077988 3.11403e-05 0.0008605 5e-05 
0.000681594 3.16032e-05 0.000899719 5e-05 
0.000724637 0.000110002 0.000889685 4e-05 
0.000804363 0.000110003 0.000896288 4e-05 
0.000718442 0.000100001 0.000981769 5e-05 
0.000807711 0.000110002 0.000976216 4e-05 
0.000781477 2.53925e-05 0.000960321 5e-05 
0.00096 -3.14089e-05 0.000942699 4e-05 
0.000960001 0.000110001 0.000818956 4e-05 
0.000940002 5.73881e-06 0.000852035 6e-05 
0.000865399 6.09667e-05 0.000912717 4e-05 
0.000887592 0.000110002 0.000971902 4e-05 
0.000950002 0.000100002 0.000907836 5e-05 
0.000873386 -1.42732e-05 0.000961451 5e-05 
0.000970001 0.000120003 0.000982668 3e-05 
0.000949338 4.32617e-05 0.000991794 5e-05 
-0.000357543 -5.60562e-05 0.00116489 4e-05 
-0.000208856 -4.28703e-05 0.00110337 3e-05 
-9.83985e-05 -4.79085e-05 0.00113829 4e-05 
0.000389164 -7.32348e-05 0.00104123 4e-05 
0.000762923 -4.90191e-05 0.00111414 5e-05 
-0.000827133 4.16307e-06 0.00106149 3e-05 
-0.000824367 3.69029e-05 0.00101128 3e-05 
-0.000960001 -5.7915e-06 0.00103934 4e-05 
-0.000887529 3.99079e-05 0.00112324 4e-05 
-0.000889209 3.12083e-05 0.00104374 4e-05 
-0.00097 3.78691e-05 0.0010937 3e-05 
-0.000950003 0.000100001 0.00104744 5e-05 
-0.000890843 0.000120002 0.00109744 3e-05 
-0.000950002 0.000100002 0.00114744 5e-05 
-0.000860656 0.000110001 0.0011598 4e-05 
-0.000823184 8.25503e-05 0.00107697 5e-05 
-0.000958684 1.09701e-05 0.00115733 4e-05 
-0.000792082 0.000120001 0.00100401 3e-05 
-0.000730239 -3.70254e-05 0.00116529 3e-05 
-0.000675465 -2.66408e-05 0.00105885 2e-05 
-0.00078843 6.69015e-06 0.00113208 5e-05 
-0.000740746 1.17596e-05 0.00103308 6e-05 
-0.000666427 1.38004e-05 0.00112728 6e-05 
-0.000680781 0.000110003 0.00110407 4e-05 
-0.000741279 0.000110003 0.00105173 4e-05 
-0.000757391 0.000100002 0.00115023 5e-05 
-0.000674456 0.000120002 0.00103344 3e-05 
-0.000584819 -3.21863e-05 0.00109227 4e-05 
-0.000626647 1.01932e-05 0.00102479 5e-05 
-0.000536887 1.53755e-05 0.00102879 4e-05 
-0.000553292 3.98391e-05 0.00110705 4e-05 
-0.000603075 0.000100001 0.00116137 5e-05 
-0.00046637 4.68729e-05 0.00104965 4e-05 
-0.000602202 0.000100001 0.00106135 5e-05 
-0.000521493 0.000100001 0.00100231 5e-05 
-0.000518064 0.000110002 0.00109169 4e-05 
-0.00047726 5.20201e-05 0.00112874 4e-05 
-0.000512083 0.000110002 0.00117146 4e-05 
-0.00045496 -2.90428e-05 0.00109663 5e-05 
-0.000439737 1.28492e-06 0.00102115 2e-05 
-0.000438087 0.000110002 0.00108983 4e-05 
-0.000364476 -6.93746e-06 0.00110212 4e-05 
-0.00038797 2.8574e-05 0.0010344 4e-05 
-0.000299592 -2.01834e-05 0.00112877 3e-05 
-0.000415638 4.0619e-05 0.00109756 3e-05 
-0.000399919 0.000110001 0.00101953 4e-05 
-0.000330944 0.000120002 0.00101303 3e-05 
-0.000340398 9.00021e-05 0.00109735 6e-05 
-0.000384144 4.56869e-05 0.00114758 2e-05 
-0.000292329 0.000120003 0.00116727 3e-05 
-0.000424831 2.14614e-05 0.00116363 3e-05 
-0.00041724 0.000100002 0.00117681 5e-05 
-0.000192576 4.35043e-06 0.000987956 2e-05 
-0.000270733 4.87123e-05 0.00113662 3e-05 
-0.000268579 6.73809e-07 0.00103602 7e-05 
-0.000144703 -5.12285e-06 0.00107406 5e-05 
-0.000214463 7.11307e-05 0.00105428 2e-05 
-0.000173377 5.50763e-05 0.00101361 4e-05 
-0.000258787 0.000110003 0.00104314 4e-05 
-0.000240709 0.000110002 0.00112107 4e-05 
-0.00019897 0.000120001 0.00100818 3e-05 
-0.000153065 0.000110002 0.00115238 4e-05 
-0.000173774 0.000110001 0.00107511 4e-05 
-0.000124982 6.53641e-05 0.00110635 3e-05 
-0.000194346 4.53712e-05 0.00112961 4e-05 
-9.49259e-05 0.000110001 0.00106158 4e-05 
-5.13319e-05 0.000120003 0.00100598 3e-05 
-6.47187e-05 1.81055e-05 0.00110816 4e-05 
2.51968e-05 4.20212e-05 0.00101916 3e-05 
-6.38908e-05 0.000100003 0.00114547 5e-05 
9.94286e-06 3.64485e-05 0.00113027 4e-05 
-6.36631e-05 3.09048e-05 0.00100899 6e-05 
6.38497e-05 6.10968e-05 0.00109304 3e-05 
-1.23288e-06 0.000100002 0.00106753 5e-05 
2.45767e-05 0.000110001 0.00115863 4e-05 
6.71268e-05 0.000120002 0.00110396 3e-05 
4.24577e-05 0.000130002 0.00102181 2e-05 
8.53994e-05 7.54548e-05 0.00115598 3e-05 
-5.07952e-05 3.64392e-05 0.0011717 2e-05 
8.77124e-05 1.18475e-05 0.00102818 4e-05 
8.30904e-05 -1.35585e-05 0.0011144 5e-05 
0.000165962 -3.15285e-05 0.00114455 4e-05 
0.000215131 -2.98171e-05 0.00105933 5e-05 
0.000224111 6.89003e-05 0.00101099 3e-05 
0.000104111 0.000100002 0.0010359 5e-05 
0.000164221 3.44396e-05 0.00102219 4e-05 
0.000152272 3.15741e-05 0.00117158 3e-05 
0.000224105 4.9237e-05 0.00106767 3e-05 
0.000158107 3.57255e-05 0.00110194 4e-05 
0.00013452 0.000110002 0.00112001 4e-05 
0.00019101 0.000110001 0.00105708 4e-05 
0.000228478 9.00029e-05 0.00114779 6e-05 
0.000321252 -1.79605e-05 0.00102043 5e-05 
0.000409681 7.01293e-06 0.00107643 5e-05 
0.000284295 0.000100003 0.00105353 5e-05 
0.00030615 2.1261e-05 0.00111117 5e-05 
0.000370091 0.000100001 0.0011049 5e-05 
0.000423144 8.21921e-05 0.00114695 2e-05 
0.000455662 0.000120001 0.00114335 3e-05 
0.000450419 0.000110003 0.00106557 4e-05 
0.000534277 -3.63378e-05 0.0010717 6e-05 
0.000515636 -1.87016e-05 0.00117224 4e-05 
0.000495278 4.99624e-05 0.00101574 5e-05 
0.000562306 4.66962e-05 0.00109218 3e-05 
0.000487903 5.01629e-05 0.00112137 5e-05 
0.000579662 0.000100003 0.00103511 5e-05 
0.000555126 0.000110002 0.00112117 4e-05 
0.000612802 7.10847e-05 0.00111351 3e-05 
0.000610096 0.000110001 0.00117929 4e-05 
0.000559687 4.79923e-05 0.00117561 4e-05 
0.000661672 -4.03659e-05 0.00112241 5e-05 
0.000648079 0.00013 0.00113275 2e-05 
0.000638006 3.39883e-05 0.00116726 4e-05 
0.000643255 1.06372e-06 0.00101131 7e-05 
0.000724956 -7.58083e-06 0.00117107 3e-05 
0.000714933 3.1692e-05 0.001114 4e-05 
0.000655594 4.53433e-05 0.00111103 2e-05 
0.000749218 1.35016e-06 0.00104083 4e-05 
0.000783691 4.6718e-05 0.00117241 5e-05 
0.000784038 9.00026e-05 0.00107129 6e-05 
0.000674496 0.000100003 0.00107159 5e-05 
0.000699095 0.000100002 0.00117042 5e-05 
0.000813422 1.25505e-05 0.00110647 3e-05 
0.000803427 0.00013 0.00117468 2e-05 
0.000936612 -3.3892e-05 0.00114896 5e-05 
0.000960001 -5.042e-06 0.00106698 4e-05 
0.000833305 5.50513e-05 0.00112374 2e-05 
0.000859699 -2.27029e-05 0.00112115 3e-05 
0.000960001 5.99485e-05 0.00111363 4e-05 
0.000874425 2.02565e-05 0.00105529 5e-05 
0.000969992 0.000120001 0.00116609 3e-05 
0.000880004 0.000110003 0.00105154 4e-05 
0.000960002 0.000110002 0.00105122 4e-05 
0.000884153 0.000100002 0.00114088 5e-05 
0.000869148 1.88173e-05 0.00117671 4e-05 
-0.000879847 -6.93673e-05 0.00125513 6e-05 
-0.000527884 -5.56183e-05 0.00127874 7e-05 
-0.000413571 -9.3525e-05 0.00130047 5e-05 
-0.000311291 -7.54392e-05 0.00126425 6e-05 
-0.000165964 -4.4719e-05 0.00129003 6e-05 
-5.35003e-05 -4.4553e-05 0.0012952 5e-05 
5.3369e-06 -4.27718e-05 0.00119057 5e-05 
0.000445168 -7.23972e-05 0.00112577 5e-05 
0.000542156 -4.14266e-05 0.00129978 6e-05 
-0.000960002 -1.36533e-05 0.00123343 4e-05 
-0.0008963 4.64049e-05 0.00121258 5e-05 
-0.000950002 4.66638e-05 0.00129947 5e-05 
-0.000890534 0.000110003 0.00127599 4e-05 
-0.000960002 0.000110002 0.00123632 4e-05 
-0.000851941 2.70662e-05 0.00130009 5e-05 
-0.000826863 0.000110003 0.00132442 4e-05 
-0.000892945 0.000120002 0.00134523 3e-05 
-0.000819229 8.90838e-08 0.00121639 4e-05 
-0.000960001 0.000110001 0.00136264 4e-05 
-0.000692322 -1.86211e-05 0.00129294 5e-05 
-0.000781645 -2.61317e-05 0.00128196 4e-05 
-0.000811342 0.000100002 0.00123442 5e-05 
-0.000724751 2.99244e-05 0.00136234 2e-05 
-0.000733264 2.65906e-05 0.0012137 5e-05 
-0.000699865 0.000110003 0.00121884 4e-05 
-0.000709594 0.000120001 0.00129175 3e-05 
-0.000642301 0.000110002 0.00127526 4e-05 
-0.000756576 5.68626e-05 0.00130611 5e-05 
-0.000646845 5.01979e-05 0.00122232 4e-05 
-0.000783715 -9.55467e-06 0.00136073 4e-05 
-0.000575096 7.84651e-06 0.00118829 5e-05 
-0.000606535 3.19254e-05 0.00130219 5e-05 
-0.000512006 0.000110001 0.00132866 4e-05 
-0.000484203 3.77615e-05 0.00121733 5e-05 
-0.000496556 0.00013 0.00122588 2e-05 
-0.000555475 0.000100003 0.00124967 5e-05 
-0.000451115 0.000110003 0.00125959 4e-05 
-0.000404326 -2.03307e-05 0.00123297 5e-05 
-0.000426841 8.26881e-05 0.00130717 2e-05 
-0.000431175 8.66116e-06 0.00133718 6e-05 
-0.000402244 6.18975e-05 0.00124553 3e-05 
-0.000392617 0.00013 0.00123516 2e-05 
-0.000335926 2.94822e-05 0.00128626 5e-05 
-0.000329209 2.65797e-05 0.00118653 5e-05 
-0.000295734 0.000110004 0.0012867 4e-05 
-0.000338388 0.000110002 0.00121902 4e-05 
-0.000376474 0.000110002 0.00128937 4e-05 
-0.000299205 7.05744e-05 0.00124161 2e-05 
-0.00043814 0.000110002 0.00135938 4e-05 
-0.000277606 1.45956e-05 0.00135317 4e-05 
-0.000232526 -2.5842e-05 0.00118852 6e-05 
-0.000246652 1.33892e-05 0.00127941 4e-05 
-0.000101463 4.13519e-05 0.00131308 5e-05 
-0.000125069 2.6392e-05 0.00119967 6e-05 
-0.000171616 4.37849e-05 0.00127471 3e-05 
-0.000224997 9.00022e-05 0.0012189 6e-05 
-0.00014259 0.000110002 0.0012719 4e-05 
-0.000213326 9.00032e-05 0.0013397 6e-05 
-6.61271e-05 0.000120002 0.00132219 3e-05 
-1.26507e-05 2.1984e-05 0.00125043 4e-05 
6.05754e-05 1.58184e-05 0.00131825 6e-05 
-2.05625e-05 7.00019e-05 0.00134017 4e-05 
2.49078e-05 0.000120001 0.00132157 3e-05 
-5.72134e-05 0.000100003 0.00124524 5e-05 
-1.21329e-05 6.06959e-05 0.00119211 3e-05 
4.27805e-05 0.000100002 0.0012462 5e-05 
-2.04709e-05 0.000130001 0.00134003 2e-05 
8.36831e-05 1.63137e-05 0.00120983 5e-05 
0.000152312 -1.54988e-05 0.00134282 4e-05 
0.000166357 -2.77228e-05 0.00124484 5e-05 
9.41563e-05 0.000110002 0.00131941 4e-05 
0.000245288 -1.29209e-05 0.00118277 5e-05 
0.000148787 5.02822e-05 0.00128615 4e-05 
0.000192815 4.14886e-05 0.00121468 3e-05 
0.000165272 0.000110002 0.00135605 4e-05 
0.000138413 0.000100002 0.00121063 5e-05 
0.000155017 0.000120002 0.00128631 3e-05 
0.000226844 0.000100002 0.00125732 5e-05 
0.000234318 0.000120002 0.00135033 3e-05 
0.000221478 4.19256e-05 0.00133855 5e-05 
0.000132025 4.86907e-05 0.00136201 3e-05 
0.000397897 -3.29519e-05 0.00128754 5e-05 
0.000386424 1.82839e-06 0.00118382 6e-05 
0.000327212 0.000100002 0.00119524 5e-05 
0.000304229 2.16668e-05 0.00126897 6e-05 
0.00042532 0.000100003 0.00121461 5e-05 
0.000295235 0.000110003 0.00131496 4e-05 
0.000369062 0.000110001 0.00128415 4e-05 
0.000413313 4.56886e-05 0.00127211 3e-05 
0.000383594 4.66304e-05 0.00134638 5e-05 
0.000352595 0.000120002 0.00135381 3e-05 
0.00037246 -3.94291e-05 0.00136311 3e-05 
0.000590973 -1.32689e-05 0.00118858 3e-05 
0.000469686 -1.2159e-05 0.0012374 4e-05 
0.000474714 1.83198e-05 0.00134316 4e-05 
0.000459286 0.000100002 0.00130867 5e-05 
0.000510593 0.000110001 0.00118763 4e-05 
0.000482969 4.62064e-05 0.00120111 3e-05 
0.000606105 3.38782e-05 0.00125141 5e-05 
0.000516307 4.77508e-05 0.00126264 4e-05 
0.000516674 0.000120001 0.00125664 3e-05 
0.000567082 0.000100003 0.00131548 5e-05 
0.000573803 0.000120001 0.00123831 3e-05 
0.000615519 2.09501e-05 0.00135295 5e-05 
0.00065397 0.000110001 0.00124764 4e-05 
0.000740881 4.91046e-06 0.00129561 3e-05 
0.000653672 0.000110001 0.00133788 4e-05 
0.000669639 5.83494e-05 0.00129342 3e-05 
0.000691291 2.08465e-05 0.00122546 4e-05 
0.000749872 9.00027e-05 0.00126771 6e-05 
0.00067384 -1.52041e-05 0.00129471 4e-05 
0.000719889 9.26611e-05 0.00135253 3e-05 
0.00078996 -2.6156e-05 0.0012406 5e-05 
0.000779479 -3.11973e-05 0.00132401 3e-05 
0.000815156 3.80969e-05 0.00134204 5e-05 
0.000820458 0.000120001 0.00122061 3e-05 
0.000960002 -1.91948e-05 0.0013451 4e-05 
0.000960001 -3.23877e-05 0.00123815 4e-05 
0.000890134 -8.15809e-06 0.00128945 5e-05 
0.000838387 4.96348e-05 0.00124382 4e-05 
0.000970001 0.000120003 0.00123452 3e-05 
0.000889079 0.000110002 0.00123019 4e-05 
0.000949733 4.95802e-05 0.00120244 5e-05 
0.000843664 0.000110004 0.00129605 4e-05 
0.000940002 9.0002e-05 0.00131389 6e-05 
-0.000830444 -5.92018e-05 0.00143452 5e-05 
-0.000605725 -4.55212e-05 0.0014745 4e-05 
-0.000477646 -5.76778e-05 0.00153983 4e-05 
-0.000340912 -5.82795e-05 0.00137927 6e-05 
-0.000241267 -6.4751e-05 0.00142541 5e-05 
-7.86494e-05 -4.58114e-05 0.00154727 3e-05 
0.000337708 -4.51826e-05 0.00146251 4e-05 
0.000823896 -3.9034e-05 0.00140509 5e-05 
-0.000915176 -4.79518e-06 0.00139024 6e-05 
-0.000970001 6.26407e-05 0.00141361 3e-05 
-0.000970002 0.000120002 0.0014312 3e-05 
-0.00096 0.000110002 0.00149976 4e-05 
-0.000893014 0.000100001 0.00142269 5e-05 
-0.000945912 2.14054e-05 0.00149256 5e-05 
-0.000856847 2.88026e-05 0.00146419 4e-05 
-0.000880838 0.000110001 0.0015113 4e-05 
-0.000826933 5.42794e-05 0.00138215 4e-05 
-0.00075864 -3.1649e-05 0.00148126 4e-05 
-0.00067229 9.00022e-05 0.00136854 6e-05 
-0.000673737 -1.43822e-05 0.00150287 4e-05 
-0.000699824 -9.39144e-06 0.00141687 5e-05 
-0.000749724 3.74607e-05 0.00145834 3e-05 
-0.000689636 4.70244e-05 0.00153247 3e-05 
-0.00075681 4.35592e-05 0.0013982 3e-05 
-0.000769564 0.000110003 0.00138025 4e-05 
-0.000757888 0.000120001 0.00152785 3e-05 
-0.000801803 0.000100003 0.00146368 5e-05 
-0.000702326 0.000100003 0.00147388 5e-05 
-0.000797298 1.35078e-05 0.00143072 3e-05 
-0.000769162 3.90631e-05 0.00153593 5e-05 
-0.000609305 -3.06939e-05 0.0013801 5e-05 
-0.000556689 -7.09557e-06 0.00144258 3e-05 
-0.000470239 -3.21072e-05 0.00144344 6e-05 
-0.000615817 0.000100002 0.00153198 5e-05 
-0.000574889 0.000110003 0.00137915 4e-05 
-0.000531008 3.14492e-05 0.00137735 5e-05 
-0.000620437 4.03356e-05 0.00145187 5e-05 
-0.000500745 0.000110002 0.00140919 4e-05 
-0.000631352 0.000120002 0.00144286 3e-05 
-0.000563832 0.000110001 0.00145838 4e-05 
-0.000514223 6.0637e-05 0.00145695 3e-05 
-0.000519658 0.000110002 0.00152507 4e-05 
-0.000453203 0.000120002 0.00150549 3e-05 
-0.000459234 5.05593e-05 0.00149908 4e-05 
-0.000547163 1.39665e-05 0.00152956 6e-05 
-0.000439221 6.05715e-05 0.00142227 4e-05 
-0.000369843 1.45517e-05 0.00145646 5e-05 
-0.000342442 9.00016e-05 0.00138125 6e-05 
-0.000405673 0.000120003 0.00143783 3e-05 
-0.000292231 0.000110002 0.00146538 4e-05 
-0.000373461 0.000100003 0.00150827 5e-05 
-0.000277257 7.91453e-07 0.0014918 5e-05 
-0.00029183 7.65967e-05 0.00153807 4e-05 
-0.000182845 -3.56617e-06 0.00152447 5e-05 
-0.000258469 5.28001e-05 0.0014208 4e-05 
-0.000157887 2.38249e-06 0.0014001 6e-05 
-0.000117063 0.000110001 0.00136915 4e-05 
-0.000170661 0.000120003 0.00141304 3e-05 
-0.000238877 0.000120001 0.00142061 3e-05 
-0.000145718 0.000120001 0.00153133 3e-05 
-0.00019783 8.43901e-05 0.00147932 5e-05 
-0.000105521 -2.53774e-05 0.00148391 4e-05 
-7.84768e-05 8.00037e-05 0.00146769 7e-05 
2.51913e-05 -2.35058e-05 0.0014497 5e-05 
-4.89263e-05 -2.67093e-06 0.00138589 5e-05 
1.32197e-05 0.000120001 0.00138045 3e-05 
1.32791e-05 5.71118e-05 0.00141151 4e-05 
6.0542e-06 5.68171e-05 0.00148811 2e-05 
7.52196e-05 2.18854e-05 0.00140685 3e-05 
-4.87816e-05 0.000120001 0.0013809 3e-05 
2.73226e-05 0.000110001 0.00147024 4e-05 
6.17473e-05 4.95065e-05 0.00146281 3e-05 
-2.99268e-05 -4.7233e-06 0.00151833 4e-05 
8.78898e-05 3.46506e-06 0.00152278 5e-05 
0.000260677 -4.06073e-05 0.00148361 4e-05 
9.23541e-05 0.000100003 0.00140884 5e-05 
0.000203791 -1.53065e-05 0.00141862 5e-05 
0.000236351 4.14418e-05 0.00146466 3e-05 
0.000181527 6.73236e-05 0.00151584 3e-05 
0.000131259 2.90215e-05 0.00144818 4e-05 
0.000186344 0.000100002 0.00144298 5e-05 
0.000254684 0.000100004 0.00151598 5e-05 
0.00010899 0.000100002 0.00150744 5e-05 
0.000186655 -1.18644e-05 0.00152597 5e-05 
0.00040912 3.53475e-05 0.00147655 2e-05 
0.000426994 -1.38168e-05 0.00139875 4e-05 
0.00029784 -1.24629e-05 0.00137334 5e-05 
0.000410651 0.000120001 0.00136896 3e-05 
0.000364095 2.35188e-05 0.00143114 4e-05 
0.000368177 9.00089e-05 0.0014919 5e-05 
0.000376355 0.000120001 0.00141819 3e-05 
0.000301773 2.76899e-05 0.00149042 4e-05 
0.000440165 7.12294e-05 0.00142508 5e-05 
0.000291668 9.00023e-05 0.00141287 6e-05 
0.000367917 6.41248e-06 0.00149891 3e-05 
0.000431542 2.78097e-05 0.00154243 5e-05 
0.000454951 0.000110002 0.00150494 4e-05 
0.000527809 -3.6561e-05 0.00149648 3e-05 
0.00057792 -1.79927e-05 0.00141185 3e-05 
0.000508121 1.22158e-05 0.00152534 3e-05 
0.000535726 3.4349e-05 0.00139236 4e-05 
0.000491165 -5.21279e-06 0.00144574 4e-05 
0.000489894 5.27209e-05 0.001485 3e-05 
0.00051079 0.000110003 0.00138498 4e-05 
0.000568737 2.90303e-05 0.00147592 5e-05 
0.000524228 0.000110001 0.00146403 4e-05 
0.000596332 0.000100003 0.0014111 5e-05 
0.000590756 0.000110001 0.00150846 4e-05 
0.000806354 3.18256e-05 0.00143781 3e-05 
0.000652462 5.54535e-05 0.00149571 4e-05 
0.000645421 -1.37688e-05 0.00145623 4e-05 
0.000655742 4.85777e-05 0.00142612 3e-05 
0.000719633 2.10304e-06 0.00138302 6e-05 
0.000647737 0.000120002 0.00146905 3e-05 
0.00068579 0.000110001 0.00141115 4e-05 
0.000775222 0.000100002 0.00140984 5e-05 
0.000715003 0.000110001 0.00148563 4e-05 
0.000788091 0.000110001 0.00151816 4e-05 
0.000743593 1.45047e-05 0.00149995 6e-05 
0.000656229 0.000120001 0.0015316 3e-05 
0.000930002 -3.67585e-05 0.00146109 7e-05 
0.000897789 2.2042e-05 0.00137388 4e-05 
0.000850561 3.57238e-05 0.00151433 5e-05 
0.000857559 5.70001e-05 0.00141926 3e-05 
0.000862473 0.000110001 0.0013738 4e-05 
0.000846654 0.000110003 0.00146366 4e-05 
0.00096 5.05314e-05 0.00152357 4e-05 
0.000940001 9.00019e-05 0.00143389 6e-05 
0.000969991 0.000120001 0.00152029 3e-05 
0.000900531 0.000110002 0.00152357 4e-05 
-0.00088489 -5.17492e-05 0.00171269 5e-05 
-0.000799828 -6.33287e-05 0.00159047 7e-05 
-0.000587527 -4.41323e-05 0.00162771 6e-05 
-0.000318122 -4.44982e-05 0.00157104 5e-05 
-0.000201546 -4.53869e-05 0.00165816 6e-05 
2.45551e-05 -5.54704e-05 0.00154759 4e-05 
-6.16296e-06 -5.24729e-05 0.00168414 4e-05 
8.90051e-05 -4.95763e-05 0.00172525 6e-05 
0.000240983 -7.00412e-05 0.00159921 5e-05 
0.000372794 -5.24362e-05 0.00155288 5e-05 
0.000828972 -5.56928e-05 0.00157157 6e-05 
-0.000960001 -3.30737e-05 0.00166676 4e-05 
-0.00096 -1.6415e-05 0.001573 4e-05 
-0.000867322 3.1681e-05 0.00155353 5e-05 
-0.0009543 4.42003e-05 0.00162489 4e-05 
-0.000960002 0.000110001 0.00157975 4e-05 
-0.000960002 0.000110003 0.00167003 4e-05 
-0.000882787 0.000100003 0.00162489 5e-05 
-0.000869799 3.13615e-05 0.00168163 4e-05 
-0.000950001 3.72396e-05 0.00172204 5e-05 
-0.000894377 -1.79065e-05 0.00162359 4e-05 
-0.00081849 0.000110001 0.00156143 4e-05 
-0.000824527 0.000100005 0.00171821 5e-05 
-0.00079361 -1.31667e-05 0.0016993 5e-05 
-0.000791362 5.9984e-05 0.00163116 5e-05 
-0.000705662 8.50392e-06 0.00162891 5e-05 
-0.000643635 6.97804e-06 0.00170733 5e-05 
-0.000710092 0.000100003 0.00158881 5e-05 
-0.000715761 9.00024e-05 0.00170521 6e-05 
-0.000637401 2.21494e-05 0.00157187 4e-05 
-0.000483547 -1.01924e-05 0.00161605 5e-05 
-0.000541084 0.000107377 0.00159167 3e-05 
-0.000539909 6.73489e-05 0.00162181 2e-05 
-0.000614062 9.00021e-05 0.00164151 6e-05 
-0.0005174 0.000110002 0.00165751 4e-05 
-0.000545898 2.70104e-05 0.00170055 5e-05 
-0.000456848 4.73528e-05 0.00167989 4e-05 
-0.000563234 0.000120001 0.00170946 3e-05 
-0.000628468 0.000120001 0.00172552 3e-05 
-0.000446334 9.00025e-05 0.00159006 6e-05 
-0.000406306 -3.39597e-06 0.00154794 5e-05 
-0.000451237 0.000120002 0.00167805 3e-05 
-0.00030227 3.43334e-06 0.00165736 5e-05 
-0.000400031 2.11337e-05 0.00162489 3e-05 
-0.000348044 5.14491e-05 0.00158914 4e-05 
-0.000296808 0.000110002 0.00161059 4e-05 
-0.000361624 0.000120001 0.00158513 3e-05 
-0.000366401 9.00018e-05 0.00167956 6e-05 
-0.000396902 -4.67133e-06 0.00168988 4e-05 
-0.000133357 -3.08587e-05 0.00159336 3e-05 
-0.000200284 2.44721e-05 0.00171489 3e-05 
-0.00015809 4.48901e-05 0.0016773 3e-05 
-0.000101655 1.96279e-05 0.00155667 4e-05 
-0.000268602 0.000110002 0.00168546 4e-05 
-0.00022627 5.12721e-05 0.00165142 4e-05 
-0.000255767 2.04623e-05 0.00158221 4e-05 
-0.000214015 0.000100004 0.00157676 5e-05 
-0.000164043 3.08804e-05 0.00160547 4e-05 
-0.000172126 0.000110002 0.00165578 4e-05 
-0.000104667 0.000100002 0.00159705 5e-05 
-0.000114397 0.000110001 0.00171116 4e-05 
-0.000128808 -4.0046e-05 0.00171089 3e-05 
-2.22888e-05 -1.3261e-05 0.00158738 3e-05 
-7.92679e-05 8.5175e-06 0.00165356 6e-05 
5.37955e-05 -2.04411e-05 0.00162516 5e-05 
7.00138e-06 3.24516e-05 0.00166275 3e-05 
7.58528e-05 5.56965e-05 0.0016962 5e-05 
1.15608e-05 8.0003e-05 0.00157489 7e-05 
-2.82466e-05 0.000100003 0.00168712 5e-05 
4.44661e-05 0.000120003 0.00166043 3e-05 
1.64327e-05 5.79802e-06 0.00171567 3e-05 
0.000110933 -1.95879e-05 0.00158473 2e-05 
0.000106362 0.000110001 0.00162931 4e-05 
0.00012295 1.1349e-06 0.0016591 3e-05 
0.00019164 -1.01988e-05 0.00172134 5e-05 
0.000140119 3.69534e-05 0.00171665 2e-05 
0.000183774 -5.57565e-06 0.00162511 4e-05 
0.000121878 3.77144e-05 0.00159875 4e-05 
0.000160729 5.97549e-05 0.00166512 4e-05 
0.000257141 2.76025e-05 0.00158491 5e-05 
0.00018606 0.000100002 0.00158871 5e-05 
0.00026829 0.000110001 0.0016239 4e-05 
0.000219031 0.000110003 0.00168693 4e-05 
0.000451905 -3.95798e-05 0.0015985 4e-05 
0.00030124 -2.48578e-05 0.00162618 3e-05 
0.000376052 1.25749e-06 0.00163718 5e-05 
0.000326677 0.000110002 0.00156921 4e-05 
0.000343206 3.23948e-05 0.00155903 4e-05 
0.000408021 0.000120002 0.00171464 3e-05 
0.00036615 0.000100002 0.00164947 5e-05 
0.000407685 0.000110003 0.00157026 4e-05 
0.000286475 3.62628e-05 0.00169057 6e-05 
0.00045558 0.000110001 0.00165086 4e-05 
0.000551582 -2.79599e-05 0.00159314 6e-05 
0.000591892 1.88417e-05 0.00171482 2e-05 
0.000463965 2.8878e-05 0.0017025 3e-05 
0.000460425 3.22488e-05 0.00163267 4e-05 
0.000538358 4.25969e-05 0.00167648 5e-05 
0.000520682 9.0002e-05 0.0015776 6e-05 
0.000592349 0.000110001 0.00165116 4e-05 
0.000587801 0.000130001 0.00159477 2e-05 
0.000523895 0.000120003 0.00166239 3e-05 
0.000615752 6.10273e-05 0.00156656 4e-05 
0.00065406 -1.94492e-05 0.00155408 5e-05 
0.000735726 1.2015e-06 0.00158861 3e-05 
0.00074072 -5.88848e-08 0.00166823 4e-05 
0.000644538 2.37697e-05 0.00165479 6e-05 
0.000636688 0.000120002 0.00159792 3e-05 
0.000789831 6.50146e-05 0.00155783 2e-05 
0.000787888 0.000110002 0.00166229 4e-05 
0.000721213 9.0003e-05 0.00159049 6e-05 
0.000707947 0.000100002 0.0017024 5e-05 
0.00075013 6.34193e-05 0.00166019 2e-05 
0.00079474 2.71607e-05 0.00161588 4e-05 
0.000805591 3.88442e-05 0.00169427 4e-05 
0.000813787 -2.24391e-05 0.00166145 3e-05 
0.00097 -1.35815e-05 0.00154982 3e-05 
0.000970001 -2.62236e-05 0.00163268 3e-05 
0.00097 2.25441e-05 0.00159773 3e-05 
0.00098 6.1271e-05 0.00164808 2e-05 
0.00084101 0.000100004 0.00159033 5e-05 
0.000887564 0.000120001 0.00165224 3e-05 
0.000950001 0.000100002 0.00159808 5e-05 
0.000950001 0.000100002 0.00169808 5e-05 
0.000846076 9.59693e-05 0.00166642 2e-05 
0.00089207 1.77137e-05 0.00164249 6e-05 
-0.000844677 -7.39716e-05 0.00181537 6e-05 
-0.000440266 -7.226e-05 0.00180711 5e-05 
-9.31931e-05 -8.06507e-05 0.00185964 5e-05 
6.57088e-08 -4.98496e-05 0.00177096 4e-05 
0.000222532 -4.71837e-05 0.00189121 5e-05 
0.000157687 -4.75951e-05 0.00178338 3e-05 
0.00033806 -5.94347e-05 0.00174137 6e-05 
0.000572487 -6.95417e-05 0.00186278 5e-05 
0.000663879 -6.63229e-05 0.00173166 6e-05 
0.00095 -7.89701e-05 0.00187248 5e-05 
0.00096 -6.96338e-05 0.00178114 4e-05 
0.000866414 -4.34825e-05 0.0018582 4e-05 
-0.000900562 0.000120001 0.00173724 3e-05 
-0.000950001 -2.18454e-05 0.00180272 5e-05 
-0.000863444 2.55332e-05 0.00177242 5e-05 
-0.000969997 0.000120001 0.0017386 3e-05 
-0.000940002 9.00035e-05 0.00181804 6e-05 
-0.00097 4.5002e-05 0.00188997 3e-05 
-0.000885922 1.09483e-05 0.00187213 5e-05 
-0.00071726 -4.11618e-05 0.00177338 6e-05 
-0.000774772 4.05478e-05 0.00176901 4e-05 
-0.000753661 -1.13479e-06 0.00189948 6e-05 
-0.000800683 4.18845e-06 0.00182293 3e-05 
-0.000708286 5.04765e-05 0.00181238 4e-05 
-0.000813799 9.00031e-05 0.00184667 6e-05 
-0.000762811 0.000120001 0.00177883 3e-05 
-0.000661406 0.000110003 0.00178672 4e-05 
-0.000712121 0.000100003 0.00188743 5e-05 
-0.000649598 6.15476e-06 0.00186459 5e-05 
-0.000549216 -2.26737e-05 0.00181623 6e-05 
-0.000620274 4.1391e-05 0.00178714 4e-05 
-0.000615094 0.000100002 0.00186324 5e-05 
-0.000580526 0.000110002 0.00177655 4e-05 
-0.000492704 0.000100003 0.00174347 5e-05 
-0.000517769 0.000100001 0.00184028 5e-05 
-0.000476779 0.00013 0.00188845 2e-05 
-0.000335481 -2.67994e-05 0.00173612 4e-05 
-0.00040326 -2.15581e-05 0.00175752 3e-05 
-0.00045253 2.65825e-05 0.0017982 5e-05 
-0.000336944 -1.90866e-05 0.00182592 5e-05 
-0.000418177 -1.20163e-05 0.00188381 5e-05 
-0.000369578 3.92611e-05 0.00176567 4e-05 
-0.00040691 0.000110001 0.00176878 4e-05 
-0.000281913 4.48317e-05 0.00174608 5e-05 
-0.000308972 0.000120003 0.00174202 3e-05 
-0.000327672 0.000100002 0.00181719 5e-05 
-0.000419243 0.000100002 0.00185737 5e-05 
-0.000275531 0.00013 0.00186448 2e-05 
-0.000349686 0.000120002 0.00189145 3e-05 
-0.000336895 4.2216e-05 0.00190507 5e-05 
-0.000266466 3.62475e-05 0.00183433 4e-05 
-0.000212545 -3.15145e-05 0.00178428 6e-05 
-0.000159595 -8.12216e-06 0.00187781 5e-05 
-0.000127961 2.98128e-05 0.00174986 5e-05 
-0.000177564 5.80051e-05 0.00181947 4e-05 
-0.000198654 0.000100003 0.0017412 5e-05 
-0.000169708 0.000120001 0.00185237 3e-05 
-0.000124076 0.000110003 0.00179057 4e-05 
-0.000238329 0.000110003 0.00182135 4e-05 
-0.000109346 0.000100002 0.00190138 5e-05 
-9.03372e-05 4.89546e-05 0.00182974 4e-05 
1.71953e-05 -3.6248e-05 0.00186073 5e-05 
-7.00158e-05 -2.08946e-05 0.00179646 4e-05 
-3.81185e-05 3.49073e-05 0.00174848 4e-05 
4.2367e-05 2.77176e-05 0.0017881 5e-05 
-4.55956e-05 0.000110001 0.00177504 4e-05 
3.2132e-05 0.000110001 0.00175311 4e-05 
-6.12391e-06 9.00025e-05 0.00186471 6e-05 
-6.36933e-05 4.3698e-06 0.00190324 5e-05 
7.2871e-05 3.11813e-05 0.00188202 4e-05 
9.76327e-05 0.000100003 0.00182958 5e-05 
0.00013523 -1.56669e-05 0.00189981 4e-05 
0.000100407 -2.88398e-05 0.00182725 4e-05 
0.000117438 2.90243e-05 0.0017605 3e-05 
0.000151029 0.000100003 0.00174503 5e-05 
0.000181682 2.92995e-05 0.00182352 6e-05 
0.000175016 0.000120001 0.00182584 3e-05 
0.000248012 0.000100002 0.00177155 5e-05 
0.000162602 0.000100003 0.0019056 5e-05 
0.000239913 0.000110001 0.00186062 4e-05 
0.000266743 -1.60912e-06 0.00178099 4e-05 
0.000443932 -3.1281e-05 0.00175128 5e-05 
0.000403166 5.16049e-05 0.00172871 4e-05 
0.000276499 3.37837e-05 0.00185497 4e-05 
0.000403191 -7.75986e-06 0.00187146 6e-05 
0.000353237 1.84049e-05 0.00173087 2e-05 
0.000337915 0.000110003 0.00173434 4e-05 
0.000378699 0.00013 0.00183476 2e-05 
0.000343047 4.3937e-05 0.00179524 5e-05 
0.000447683 4.51733e-05 0.00179862 4e-05 
0.000403159 0.000110001 0.00178375 4e-05 
0.000432313 0.000100002 0.00186831 5e-05 
0.000319221 0.000120002 0.00180203 3e-05 
0.000332813 0.000100002 0.00187829 5e-05 
0.000308825 -2.34182e-05 0.00190061 4e-05 
0.000482401 0.000100002 0.00173626 5e-05 
0.000493554 -3.4249e-05 0.00183781 4e-05 
0.000620843 -6.95622e-07 0.00180873 5e-05 
0.000553139 1.36938e-05 0.00184884 3e-05 
0.000529128 1.65481e-05 0.00177259 5e-05 
0.000623455 7.40343e-05 0.00183716 3e-05 
0.000493835 3.35356e-05 0.00188029 4e-05 
0.00052356 0.000100002 0.0018274 5e-05 
0.00060723 9.00024e-05 0.001748 6e-05 
0.000593273 0.000120002 0.00186116 3e-05 
0.000570105 6.33661e-05 0.00189515 4e-05 
0.000555883 -4.30775e-06 0.00190601 3e-05 
0.000776086 -2.87404e-05 0.00174586 5e-05 
0.000691359 3.59164e-05 0.00181804 3e-05 
0.000674663 7.84923e-05 0.00183825 2e-05 
0.000656428 0.000120001 0.00181717 3e-05 
0.000657778 0.000110002 0.00188644 4e-05 
0.000759452 -2.96883e-05 0.00185459 6e-05 
0.000779893 0.000120002 0.0017311 3e-05 
0.000703015 2.38346e-05 0.00175009 4e-05 
0.000690183 8.45457e-05 0.00178248 3e-05 
0.000773225 5.9145e-05 0.00176504 4e-05 
0.000800323 0.000120001 0.00178805 3e-05 
0.000737813 0.000120001 0.00177387 3e-05 
0.000751424 9.00025e-05 0.00185762 6e-05 
0.000670737 2.13449e-05 0.0018949 5e-05 
0.000818435 -3.67878e-05 0.00180101 2e-05 
0.000871462 2.14638e-05 0.00173002 3e-05 
0.000846719 2.70573e-05 0.00180589 5e-05 
0.000950001 7.23253e-06 0.00173541 5e-05 
0.000928048 -8.26627e-06 0.0018213 4e-05 
0.000857231 0.000100002 0.00173541 5e-05 
0.000847946 0.000110002 0.00184079 4e-05 
0.000940002 9.00028e-05 0.00180717 6e-05 
0.000903694 0.000110002 0.00189817 4e-05 
0.00095 3.28325e-05 0.00190061 5e-05 
-0.000593035 -6.07503e-05 0.0019128 5e-05 
-0.000102142 -5.09218e-05 0.00196294 4e-05 
0.000613981 -4.51248e-05 0.00196169 6e-05 
0.000671982 -6.88882e-05 0.00206862 4e-05 
0.000826352 -4.14589e-05 0.00197913 4e-05 
-0.000907183 -2.49785e-05 0.0020064 3e-05 
-0.000980002 -4.98319e-06 0.00199813 2e-05 
-0.00088015 0.000110002 0.00191876 4e-05 
-0.000950001 -2.70192e-05 0.00193885 5e-05 
-0.00084142 -2.74408e-06 0.00199741 4e-05 
-0.000950001 2.12716e-05 0.00205566 5e-05 
-0.00097 0.000120001 0.00199836 3e-05 
-0.000957005 5.60768e-05 0.00197297 4e-05 
-0.000873556 9.00022e-05 0.00201652 6e-05 
-0.000960001 0.000110002 0.00206692 4e-05 
-0.000960002 0.000110002 0.00191395 4e-05 
-0.000833382 4.72983e-05 0.00193551 4e-05 
-0.000839003 -2.20569e-05 0.00192789 3e-05 
-0.000862691 -1.41398e-05 0.00208917 5e-05 
-0.000756883 -3.31088e-05 0.00201098 5e-05 
-0.000710708 3.85017e-05 0.00203839 3e-05 
-0.000659398 2.03157e-06 0.00197407 6e-05 
-0.000783036 5.19467e-05 0.00199751 4e-05 
-0.000783972 0.000110001 0.00194072 4e-05 
-0.000775001 0.000110003 0.00205196 4e-05 
-0.000707625 0.000100002 0.00198733 5e-05 
-0.000692353 0.000100002 0.00208615 5e-05 
-0.000692975 -3.33872e-05 0.00208961 5e-05 
-0.000538579 -2.20393e-05 0.00201559 7e-05 
-0.000558117 3.29304e-05 0.00191072 5e-05 
-0.000609455 0.000110003 0.00205257 4e-05 
-0.000610595 0.000100002 0.00196314 5e-05 
-0.000515697 0.000110004 0.00192969 4e-05 
-0.000527127 9.82179e-05 0.00201818 5e-05 
-0.000459241 4.4719e-05 0.00195519 5e-05 
-0.000457022 4.60383e-05 0.00205785 4e-05 
-0.000462297 0.00013 0.00206485 2e-05 
-0.000426159 -3.77121e-05 0.00196969 4e-05 
-0.000438015 0.000110002 0.00201373 4e-05 
-0.000365355 3.02952e-05 0.00201065 6e-05 
-0.000398255 0.000110002 0.00194431 4e-05 
-0.000322032 0.000110003 0.00196859 4e-05 
-0.000293533 0.000110001 0.00204334 4e-05 
-0.000287624 -7.15866e-06 0.00207888 5e-05 
-0.000393121 0.000100003 0.00209109 5e-05 
-0.000193789 -3.7261e-05 0.00196715 5e-05 
-0.00027251 7.23111e-05 0.00208502 2e-05 
-0.000272614 1.44593e-06 0.00198685 4e-05 
-0.000225005 8.00034e-05 0.00192634 7e-05 
-0.000209025 3.92877e-05 0.00203808 5e-05 
-0.000229091 0.000120001 0.0020179 3e-05 
-0.000160106 0.000110002 0.00201151 4e-05 
-0.000125305 3.50955e-05 0.00197576 5e-05 
-0.000130418 6.43429e-07 0.00205875 4e-05 
-1.15797e-05 -2.73955e-05 0.00199822 6e-05 
-2.07023e-06 4.01882e-05 0.00193956 3e-05 
-6.54656e-05 4.43662e-05 0.00204234 4e-05 
-8.10373e-05 0.000110001 0.00199934 4e-05 
6.09987e-05 3.18767e-05 0.00205583 5e-05 
-4.41524e-06 0.000120001 0.00200503 3e-05 
-5.38586e-05 6.87101e-05 0.00194978 3e-05 
-2.27821e-05 0.000120001 0.00194791 3e-05 
6.91853e-05 9.0003e-05 0.00196281 6e-05 
6.18552e-05 0.000120001 0.00204734 3e-05 
-7.19408e-06 0.000100003 0.00208244 5e-05 
-1.93996e-07 6.06988e-05 0.00201312 3e-05 
0.000196358 2.77849e-05 0.0019123 3e-05 
0.000181608 -1.58731e-05 0.00196499 4e-05 
0.000255629 2.50765e-05 0.00192122 3e-05 
0.000105298 -8.66426e-07 0.00198375 4e-05 
0.000142077 5.75011e-05 0.00195729 2e-05 
0.000167645 5.56892e-06 0.00206166 6e-05 
0.000170147 0.000100002 0.00200531 5e-05 
0.000252867 0.000100002 0.00194912 5e-05 
0.000212163 0.000110002 0.00208427 4e-05 
0.000258607 1.43692e-05 0.00200044 5e-05 
0.000309791 -3.00661e-05 0.00205965 4e-05 
0.000275662 0.000110001 0.00203561 4e-05 
0.000324885 4.07684e-05 0.00194558 4e-05 
0.000443194 4.59949e-05 0.00193154 3e-05 
0.000391203 0.000100003 0.00195947 5e-05 
0.000348335 4.65171e-05 0.00203228 5e-05 
0.000384176 -7.2509e-06 0.00196963 4e-05 
0.000445776 0.000120003 0.00205272 3e-05 
0.000522957 -2.50709e-05 0.00201251 3e-05 
0.000525866 -3.94612e-05 0.00194426 3e-05 
0.000543193 2.52034e-05 0.00196821 4e-05 
0.000616759 5.14943e-05 0.00194597 3e-05 
0.000545536 2.42474e-05 0.00203816 3e-05 
0.000599511 0.000120001 0.00192392 3e-05 
0.000481402 6.77974e-07 0.00194084 3e-05 
0.000458383 3.71935e-05 0.00201981 6e-05 
0.000501528 0.000100003 0.00194048 5e-05 
0.000582296 0.000100003 0.00199944 5e-05 
0.000497633 -2.70421e-05 0.00208564 4e-05 
0.000633069 2.27282e-05 0.00205903 6e-05 
0.000728262 -3.06894e-05 0.00199532 6e-05 
0.000780274 5.39694e-05 0.00200659 4e-05 
0.00069131 9.0002e-05 0.00197852 6e-05 
0.000681341 0.000120001 0.00206288 3e-05 
0.000753761 0.00013 0.00206992 2e-05 
0.000784951 0.000110004 0.00194969 4e-05 
0.000732989 6.21494e-05 0.00208272 5e-05 
0.0008178 0.000110002 0.00204962 4e-05 
0.000902305 -3.36166e-05 0.00195525 4e-05 
0.000970001 -3.56932e-05 0.00193672 3e-05 
0.000840655 3.43318e-05 0.00191548 6e-05 
0.000960003 1.14779e-05 0.00198746 4e-05 
0.000950001 0.000100002 0.00197469 5e-05 
0.000970001 0.000120002 0.00204952 3e-05 
0.00086046 0.000110002 0.00197778 4e-05 
0.000897973 0.000120001 0.00203612 3e-05 
0.00097 6.05604e-05 0.00204135 3e-05 
0.00087296 2.81079e-05 0.00203379 6e-05 
-0.000829122 -5.32183e-05 0.00222219 3e-05 
-0.000950001 -6.40103e-05 0.00224305 5e-05 
-0.000574376 -4.69954e-05 0.00211656 4e-05 
-0.000485734 -6.34521e-05 0.00219361 6e-05 
-0.000105582 -6.31785e-05 0.00214483 7e-05 
0.000246316 -6.67389e-05 0.00223151 5e-05 
0.000371514 -9.82595e-05 0.00218084 5e-05 
0.000476096 -5.4593e-05 0.00224771 4e-05 
0.000582709 -7.14601e-05 0.00211373 6e-05 
0.00097 -5.43857e-05 0.00225307 3e-05 
-0.00085834 -2.18684e-05 0.00218019 3e-05 
-0.000888345 6.32852e-05 0.00210118 3e-05 
-0.000836569 0.000110001 0.00210725 4e-05 
-0.000876449 2.82877e-06 0.00225411 5e-05 
-0.00096 3.5731e-05 0.00226311 4e-05 
-0.000905793 0.000120001 0.00211006 3e-05 
-0.000940001 1.27231e-05 0.00216487 6e-05 
-0.000960001 0.000110003 0.0021532 4e-05 
-0.000960002 0.000110001 0.00223338 4e-05 
-0.000875806 0.000100002 0.0022032 5e-05 
-0.000831377 3.7869e-05 0.00215561 4e-05 
-0.000771969 2.7922e-05 0.00208874 5e-05 
-0.000791881 -1.96414e-05 0.00214991 3e-05 
-0.000769584 1.37663e-05 0.00223045 6e-05 
-0.000762512 0.000100002 0.00215741 5e-05 
-0.000794679 0.000110002 0.00224086 4e-05 
-0.000682523 0.000120001 0.00216298 3e-05 
-0.000701719 0.000100002 0.00223803 5e-05 
-0.000662716 4.64401e-06 0.00225486 5e-05 
-0.000685786 3.60964e-05 0.00216278 5e-05 
-0.000615215 2.94313e-05 0.00209225 5e-05 
-0.00063469 0.000120001 0.0021992 3e-05 
-0.000619825 -2.25023e-05 0.00218054 4e-05 
-0.000501201 0.000100002 0.00211474 5e-05 
-0.000544859 2.41478e-05 0.00216311 5e-05 
-0.000615278 0.000110001 0.00213239 4e-05 
-0.000606487 6.80057e-05 0.00218916 3e-05 
-0.000550196 0.000110003 0.00218957 4e-05 
-0.00050916 6.059e-05 0.00223726 4e-05 
-0.000481717 -1.02896e-05 0.00210901 4e-05 
-0.000562496 -1.23769e-05 0.00225452 5e-05 
-0.000392967 -2.36975e-05 0.00210243 5e-05 
-0.000446379 1.17337e-05 0.00224651 4e-05 
-0.000291983 -1.24339e-05 0.00216862 4e-05 
-0.00043387 4.45584e-05 0.00216365 5e-05 
-0.000339603 4.16174e-05 0.00213383 4e-05 
-0.000353668 3.35421e-05 0.00222235 5e-05 
-0.000371807 0.000110001 0.00217795 4e-05 
-0.000428822 0.000100002 0.00224686 5e-05 
-0.000295841 0.000110002 0.00220303 4e-05 
-0.000299497 0.000110002 0.00212311 4e-05 
-0.000342004 0.000110002 0.00226837 4e-05 
-0.000226214 0.000110002 0.00209103 4e-05 
-0.000212776 -3.47595e-05 0.00222218 5e-05 
-0.000129162 9.00018e-05 0.00210447 6e-05 
-0.000202884 6.1793e-05 0.00224889 3e-05 
-0.000203009 1.10156e-05 0.00213381 5e-05 
-0.000209705 0.000100002 0.00217893 5e-05 
-0.000263792 3.93822e-05 0.00222266 4e-05 
-0.000152342 0.000110003 0.00225349 4e-05 
-0.000126336 0.000120001 0.00218928 3e-05 
-0.000136261 3.68034e-05 0.00220366 5e-05 
-0.000249733 0.000110001 0.0022684 4e-05 
-1.98887e-05 1.26356e-05 0.00209992 4e-05 
6.84099e-05 -7.85361e-06 0.00212487 3e-05 
3.42921e-05 4.51228e-05 0.00213007 3e-05 
7.9178e-06 -1.92609e-05 0.00219053 6e-05 
4.81108e-05 0.000120001 0.00221911 3e-05 
5.15242e-05 0.000110003 0.00214991 4e-05 
3.01452e-06 0.000120001 0.00225869 3e-05 
-4.15303e-05 9.00019e-05 0.00218647 6e-05 
6.56155e-05 4.92384e-05 0.00218167 3e-05 
7.51105e-05 3.37998e-05 0.00225959 5e-05 
-1.92179e-05 3.72498e-05 0.00226844 4e-05 
0.000241404 -3.15389e-05 0.00209748 3e-05 
0.000122518 0.000100003 0.00209551 5e-05 
0.000270963 4.27735e-05 0.00209552 5e-05 
0.000123084 -6.71089e-06 0.00221002 3e-05 
0.000123669 2.76708e-05 0.00214905 4e-05 
0.000206312 -4.61296e-06 0.00216414 5e-05 
0.00018528 6.48698e-05 0.00213053 3e-05 
0.000178222 3.26279e-05 0.00225259 5e-05 
0.000184244 0.000120001 0.00215418 3e-05 
0.000123793 0.000100002 0.00220261 5e-05 
0.000211375 0.000110002 0.00222075 4e-05 
0.000253511 0.000110003 0.00215275 4e-05 
0.000330766 0.000110003 0.0020936 4e-05 
0.000296163 -1.23828e-05 0.00226251 3e-05 
0.000275865 4.76283e-05 0.00221365 5e-05 
0.000399404 -2.44576e-05 0.00210419 6e-05 
0.000302764 -2.98601e-05 0.00215645 5e-05 
0.000339074 5.11415e-05 0.00213664 3e-05 
0.000420196 9.00021e-05 0.00213362 6e-05 
0.000279484 0.000120002 0.00224755 3e-05 
0.00038839 9.57961e-06 0.0022307 7e-05 
0.000348648 0.000110002 0.00225157 4e-05 
0.000330743 0.000110001 0.0021736 4e-05 
0.000433184 0.000110003 0.00223353 4e-05 
0.000455154 -3.8093e-05 0.00217352 3e-05 
0.000581507 2.15998e-05 0.00217236 5e-05 
0.000488524 1.89543e-05 0.00215045 4e-05 
0.000536459 9.00024e-05 0.00209893 6e-05 
0.000506488 2.95614e-05 0.002238 5e-05 
0.00058031 0.000110002 0.00218919 4e-05 
0.000500317 0.000110001 0.00219002 4e-05 
0.00054102 0.000110003 0.00225889 4e-05 
0.000621013 0.000110002 0.00225806 4e-05 
0.000614668 3.0295e-05 0.00225558 4e-05 
0.000768225 -2.15673e-05 0.00218393 5e-05 
0.000707357 -1.66599e-05 0.00211782 4e-05 
0.000792682 3.52448e-05 0.00212869 3e-05 
0.000679274 2.35462e-05 0.00219328 5e-05 
0.000769864 7.80676e-05 0.00219229 5e-05 
0.000728952 0.000120004 0.00213782 3e-05 
0.000651542 0.000100002 0.0021351 5e-05 
0.000782484 0.000120001 0.00211072 3e-05 
0.000689201 0.000110003 0.00221623 4e-05 
0.000809925 3.15585e-05 0.00225811 4e-05 
0.000740547 2.52046e-05 0.00224469 3e-05 
0.000833528 0.000120001 0.00222017 3e-05 
0.000853245 -2.00563e-05 0.0021307 5e-05 
0.000831382 2.69304e-05 0.00219164 3e-05 
0.000916579 2.05042e-05 0.00215797 3e-05 
0.000960001 -1.56455e-06 0.00220824 4e-05 
0.000863713 9.0003e-05 0.00213617 6e-05 
0.00096 3.12293e-05 0.00210412 4e-05 
0.000883487 5.18769e-05 0.00223117 4e-05 
0.000947328 7.52369e-05 0.002189 4e-05 
0.000970001 0.000120001 0.0022378 3e-05 
0.000893541 0.000120001 0.00221571 3e-05 
0.000919888 0.00013 0.00225702 2e-05 
0.000960003 0.000110002 0.00211807 4e-05 
0.000970001 5.27254e-05 0.00225128 3e-05 
-0.000819914 -4.17424e-05 0.00240744 5e-05 
-0.000817192 -4.41133e-05 0.00228028 3e-05 
-0.000589847 -5.56094e-05 0.00241906 6e-05 
-0.000381218 -4.64467e-05 0.00227567 5e-05 
-0.000373533 -4.93465e-05 0.00238489 5e-05 
0.000127816 -4.68355e-05 0.00228642 5e-05 
0.000456871 -4.86145e-05 0.0024259 4e-05 
0.00057516 -5.42983e-05 0.00229139 6e-05 
0.000538069 -7.58378e-05 0.00239425 5e-05 
0.000679913 -5.73544e-05 0.00244985 6e-05 
0.00096 -4.45849e-05 0.0023856 4e-05 
-0.000905606 0.000120001 0.00227629 3e-05 
-0.000857135 6.31897e-05 0.00230292 3e-05 
-0.000846536 0.000120002 0.0022868 3e-05 
-0.000930001 -3.27343e-05 0.00235716 7e-05 
-0.000915775 5.60546e-05 0.00231342 3e-05 
-0.000911863 6.04979e-05 0.00238844 3e-05 
-0.000960002 0.000110002 0.00231919 4e-05 
-0.000960002 0.000110003 0.0023999 4e-05 
-0.000884955 0.000110002 0.00234691 4e-05 
-0.000880575 0.000110002 0.00242678 4e-05 
-0.000844344 4.42749e-05 0.00239725 4e-05 
-0.000828402 3.65872e-06 0.0023302 4e-05 
-0.000693736 -2.15404e-05 0.00238195 4e-05 
-0.000638964 3.54159e-05 0.00239442 4e-05 
-0.000748961 -5.01042e-06 0.00232648 4e-05 
-0.000705406 4.65631e-05 0.00230796 3e-05 
-0.000752489 2.76911e-05 0.00241126 4e-05 
-0.000778487 9.00025e-05 0.00233749 6e-05 
-0.000681296 0.000110002 0.0023251 4e-05 
-0.000698929 0.000100002 0.00241279 5e-05 
-0.000793232 0.000100002 0.00244606 5e-05 
-0.000628895 -1.74884e-05 0.00233527 4e-05 
-0.000505799 2.45677e-05 0.00229718 3e-05 
-0.000596591 9.00025e-05 0.00227586 6e-05 
-0.000495227 0.000100002 0.00232163 5e-05 
-0.000618201 0.000110002 0.00237428 4e-05 
-0.000541844 0.000110002 0.00239814 4e-05 
-0.000556343 3.0207e-05 0.00235896 5e-05 
-0.000461695 7.12583e-05 0.00241135 5e-05 
-0.000535523 4.9974e-05 0.00243362 3e-05 
-0.000501225 -9.29231e-06 0.00241833 4e-05 
-0.000437378 1.01284e-05 0.00233604 5e-05 
-0.000389013 4.16744e-05 0.00239579 3e-05 
-0.000393841 0.000100002 0.00234125 5e-05 
-0.000382643 0.000110003 0.00243003 4e-05 
-0.000295891 0.000120003 0.00232007 3e-05 
-0.000315515 0.000110002 0.00238651 4e-05 
-0.000295235 2.02031e-05 0.00232631 7e-05 
-0.000320348 3.54277e-05 0.00245364 6e-05 
-0.000123143 -3.67115e-05 0.00240211 3e-05 
-0.000193211 0.000120001 0.00230943 3e-05 
-0.000255313 0.000110002 0.00243919 4e-05 
-0.000225848 -9.43335e-06 0.00241962 5e-05 
-0.000190149 7.27513e-05 0.0024112 4e-05 
-0.000143497 0.000110003 0.00235794 4e-05 
-0.000239789 0.000110001 0.00236072 4e-05 
-0.00014104 0.000120001 0.00242718 3e-05 
-0.000155973 7.93713e-06 0.00231888 7e-05 
-0.000121221 2.84724e-05 0.00244845 5e-05 
2.77598e-05 -2.98241e-05 0.00234651 6e-05 
-5.56021e-05 -2.14386e-05 0.00241236 4e-05 
-5.28136e-05 2.92647e-05 0.00235054 4e-05 
-6.70268e-05 0.000100002 0.00240434 5e-05 
-7.57037e-05 0.000100002 0.0022996 5e-05 
2.59701e-05 9.0004e-05 0.00234037 6e-05 
2.07928e-05 0.000120001 0.00242507 3e-05 
6.08521e-06 3.96343e-05 0.00243612 5e-05 
9.43564e-05 8.75809e-06 0.00239316 3e-05 
9.36651e-05 3.07765e-05 0.00233735 3e-05 
0.000253271 -3.2659e-05 0.00231452 4e-05 
0.000105486 9.0002e-05 0.00243025 6e-05 
0.000231054 0.000100002 0.002308 5e-05 
0.000255874 7.7256e-05 0.00238057 3e-05 
0.000179069 1.54275e-05 0.00236123 6e-05 
0.000194685 0.000110003 0.00238971 4e-05 
0.000131066 0.000100002 0.00230948 5e-05 
0.000270612 0.000110001 0.00244146 4e-05 
0.000308881 -4.07278e-05 0.00238482 5e-05 
0.000376985 -2.10453e-06 0.00232936 3e-05 
0.000308112 3.81509e-05 0.00232336 5e-05 
0.000308512 0.000120001 0.00230804 3e-05 
0.000307506 4.26485e-05 0.00241868 4e-05 
0.000317621 0.000110002 0.00237672 4e-05 
0.000440069 0.000120002 0.00240904 3e-05 
0.000404746 9.00029e-05 0.00233189 6e-05 
0.000372822 0.000100002 0.00244752 5e-05 
0.000391803 1.06025e-05 0.00240694 5e-05 
0.000477574 0.000120001 0.00228672 3e-05 
0.00047392 -7.95751e-06 0.00233614 6e-05 
0.000604312 1.17004e-05 0.00238728 6e-05 
0.000500629 0.000110001 0.00235205 4e-05 
0.000550488 5.21954e-05 0.00231337 4e-05 
0.000564075 0.000120001 0.00232422 3e-05 
0.000611964 0.000130002 0.0023139 2e-05 
0.000498801 0.000120001 0.00242131 3e-05 
0.000609987 0.000120001 0.00236284 3e-05 
0.000570503 0.000110001 0.00241977 4e-05 
0.000515333 5.3543e-05 0.00240679 4e-05 
0.000615723 7.81955e-05 0.00232019 3e-05 
0.00076455 0.000110002 0.00227627 4e-05 
0.00073854 -2.55591e-05 0.00230649 5e-05 
0.000646456 -2.27024e-06 0.00230899 3e-05 
0.000719094 2.61081e-05 0.00238987 5e-05 
0.000659916 0.000100004 0.00242206 5e-05 
0.000689514 6.32623e-05 0.00229314 5e-05 
0.000667257 0.000120002 0.00234495 3e-05 
0.000734658 0.000110001 0.002361 4e-05 
0.000785369 0.00013 0.0023307 2e-05 
0.00078042 5.24165e-05 0.00232948 4e-05 
0.000796911 9.27028e-06 0.00238208 3e-05 
0.000812235 0.000110001 0.00238054 4e-05 
0.000801283 1.44197e-05 0.00245175 4e-05 
0.000755924 0.000100001 0.00245003 5e-05 
0.000846937 -3.56442e-05 0.00232224 6e-05 
0.000950001 1.06183e-07 0.00230812 5e-05 
0.000860755 3.69711e-05 0.00238959 4e-05 
0.000850826 0.000100002 0.00229985 5e-05 
0.000950002 0.000100002 0.00231263 5e-05 
0.000949874 4.36367e-05 0.00240023 5e-05 
0.000970001 0.000120002 0.00238747 3e-05 
0.000892234 0.000110002 0.00238092 4e-05 
-0.000888372 -4.8961e-05 0.00262997 6e-05 
-0.000733963 -4.71636e-05 0.00245827 5e-05 
-0.000502442 -4.99721e-05 0.00250159 5e-05 
-0.000349653 -5.85446e-05 0.00247125 4e-05 
-0.000264625 -5.38741e-05 0.00250037 5e-05 
-8.91437e-05 -7.13509e-05 0.00263575 6e-05 
6.88317e-05 -4.84149e-05 0.00253785 6e-05 
-4.91206e-05 -4.99603e-05 0.00249747 5e-05 
0.000259599 -5.38727e-05 0.00251354 5e-05 
0.000411184 -5.81319e-05 0.00256552 4e-05 
0.000507555 -4.50155e-05 0.00258876 6e-05 
0.000889188 -6.18973e-05 0.00262624 6e-05 
-0.000949943 4.31066e-05 0.00245926 5e-05 
-0.000970001 0.000120002 0.00246846 3e-05 
-0.00086158 4.92266e-05 0.00247521 4e-05 
-0.000960001 -3.12875e-05 0.00256247 4e-05 
-0.000960001 3.32018e-05 0.00262033 4e-05 
-0.000905587 0.000110002 0.00250295 4e-05 
-0.000970001 6.37091e-05 0.00254922 3e-05 
-0.000970001 0.000120001 0.00252846 3e-05 
-0.000934647 0.000110001 0.00258804 4e-05 
-0.000896723 3.24154e-05 0.00255634 5e-05 
-0.000824638 0.000100002 0.00254099 5e-05 
-0.000817045 -2.18529e-05 0.00250783 5e-05 
-0.000729906 -2.87137e-05 0.00255647 5e-05 
-0.00080674 1.98766e-05 0.00259812 5e-05 
-0.000772061 5.10993e-05 0.00250572 3e-05 
-0.000684523 2.77782e-05 0.00246452 4e-05 
-0.000750761 0.000110001 0.00259141 4e-05 
-0.000709088 0.000100002 0.00251227 5e-05 
-0.00064716 9.00031e-05 0.00260263 6e-05 
-0.000721591 4.91647e-05 0.00257276 3e-05 
-0.000519301 -3.13749e-06 0.00260037 4e-05 
-0.000611157 -1.92257e-05 0.00254203 7e-05 
-0.000494635 3.88459e-05 0.00248934 4e-05 
-0.000521966 0.000120001 0.00246452 3e-05 
-0.000606572 9.00033e-05 0.00247169 6e-05 
-0.000532785 9.00022e-05 0.00256632 6e-05 
-0.000458215 0.000110002 0.00249251 4e-05 
-0.000477632 0.000120002 0.00263081 3e-05 
-0.000421986 -6.00717e-06 0.00246088 5e-05 
-0.000357666 -3.25153e-05 0.00254667 4e-05 
-0.000280634 -1.75569e-05 0.00259216 5e-05 
-0.000439616 2.60934e-06 0.00255893 5e-05 
-0.000412992 7.49086e-05 0.00251049 2e-05 
-0.000364393 0.000110002 0.00250791 4e-05 
-0.000423583 0.000100002 0.00257497 5e-05 
-0.000342553 4.5946e-05 0.00255057 4e-05 
-0.000284949 0.000110002 0.00251732 4e-05 
-0.000364093 2.14712e-05 0.00263446 5e-05 
-0.000280237 9.0003e-05 0.00261519 6e-05 
-0.000131147 9.4614e-05 0.00246911 2e-05 
-0.000151058 -3.52819e-05 0.00253611 6e-05 
-0.000180243 4.5787e-05 0.00260531 4e-05 
-0.000141755 6.39953e-05 0.00252855 4e-05 
-0.000187698 0.000110003 0.00248195 4e-05 
-0.000126366 0.000110001 0.00259589 4e-05 
-0.000198464 0.000110003 0.00256122 4e-05 
-0.000230171 3.8598e-05 0.00251655 5e-05 
-0.000102397 3.37928e-05 0.00259131 4e-05 
-0.000193685 -3.71784e-05 0.00263749 5e-05 
-8.25275e-05 0.000110002 0.00250071 4e-05 
4.6636e-06 8.00654e-06 0.00250959 3e-05 
-5.55734e-05 3.92983e-05 0.00252668 4e-05 
-2.18597e-05 0.000120001 0.00246726 3e-05 
-4.81632e-05 0.000110001 0.00257903 4e-05 
3.61765e-05 9.00027e-05 0.00252916 6e-05 
-6.57e-06 1.16171e-05 0.00260934 6e-05 
9.55782e-05 4.71094e-05 0.00249704 2e-05 
0.000195762 0.000110002 0.0024697 4e-05 
0.000135795 -1.18652e-05 0.0024586 5e-05 
0.000114408 3.12276e-05 0.00257759 4e-05 
0.000229116 2.40648e-05 0.0024588 5e-05 
0.000200218 5.54234e-06 0.00256779 5e-05 
0.00015246 5.8187e-05 0.00251259 4e-05 
0.000119645 0.000120002 0.00251391 3e-05 
0.000111924 0.000110002 0.00259131 4e-05 
0.000170895 0.000120001 0.00254607 3e-05 
0.000264687 9.00033e-05 0.00253934 6e-05 
0.000195175 0.000100003 0.002624 5e-05 
0.000260186 3.78485e-05 0.00262717 4e-05 
0.000299263 7.22961e-06 0.0025466 3e-05 
0.000332619 -3.08197e-05 0.00262103 6e-05 
0.000342261 -1.77418e-05 0.00249733 4e-05 
0.000432308 2.35519e-05 0.00259134 3e-05 
0.000430823 -1.74417e-06 0.00249818 5e-05 
0.000366404 5.00027e-05 0.0025545 5e-05 
0.000324734 4.91095e-05 0.00248622 3e-05 
0.000347471 0.000120002 0.00252071 3e-05 
0.000334422 0.00013 0.00256808 2e-05 
0.00042873 0.000100002 0.00261463 5e-05 
0.000325181 0.000100003 0.00263066 5e-05 
0.000425372 0.000110002 0.00252252 4e-05 
0.000458352 7.44149e-05 0.00245891 4e-05 
0.000526078 -1.0552e-05 0.00246905 5e-05 
0.000628106 0.00013 0.00248117 2e-05 
0.000561247 1.64355e-05 0.00254596 3e-05 
0.00062774 5.84062e-05 0.00256138 3e-05 
0.000501222 0.00013 0.00253735 2e-05 
0.000492497 5.70713e-05 0.00255067 5e-05 
0.000524887 0.000110003 0.00248549 4e-05 
0.00059756 5.69475e-05 0.00248731 5e-05 
0.000567371 0.000110001 0.00255352 4e-05 
0.000527395 0.000100003 0.00263397 5e-05 
0.000588619 2.20209e-05 0.00262093 5e-05 
0.000631882 0.000110002 0.0026085 4e-05 
0.000636797 -1.90439e-05 0.00254352 5e-05 
0.000762478 3.14838e-05 0.00260236 4e-05 
0.000735968 1.61378e-05 0.00251364 5e-05 
0.000791908 5.75023e-05 0.00249244 2e-05 
0.000672743 3.65684e-05 0.00246909 3e-05 
0.000681833 0.000100002 0.00251963 5e-05 
0.000780673 0.000100002 0.00254691 5e-05 
0.000711749 0.000110002 0.00260392 4e-05 
0.000682693 3.56619e-05 0.0025983 4e-05 
0.000799333 0.000110001 0.00263439 4e-05 
0.00096 0.000110001 0.00246018 4e-05 
0.000830455 1.32769e-05 0.00254626 5e-05 
0.000891496 2.3188e-05 0.00259701 3e-05 
0.000873786 0.000100002 0.00258338 5e-05 
0.000940002 1.15842e-05 0.00252209 6e-05 
0.00096 0.000110001 0.00254017 4e-05 
0.000862734 9.00032e-05 0.00247435 6e-05 
0.00096 0.000110002 0.00262017 4e-05 
-0.000854041 -5.89926e-05 0.00276935 5e-05 
-0.000673872 -6.28181e-05 0.00280447 6e-05 
-0.000767527 -8.01219e-05 0.00275636 4e-05 
-0.000596553 -5.6632e-05 0.00272648 5e-05 
-0.00027477 -5.09045e-05 0.0027526 4e-05 
2.60017e-05 -4.53896e-05 0.00281278 5e-05 
8.47011e-05 -5.61355e-05 0.00273254 5e-05 
0.000227473 -4.24908e-05 0.00265116 5e-05 
0.000268229 -6.91841e-05 0.00281251 4e-05 
0.000296399 -4.86726e-05 0.00272334 5e-05 
0.000363624 -5.00251e-05 0.00279211 3e-05 
0.000427245 -4.82591e-05 0.00264826 4e-05 
0.000511007 -4.9e-05 0.00279999 8e-05 
0.000950001 -5.12078e-05 0.00273563 5e-05 
-0.000885519 0.000120001 0.00263689 3e-05 
-0.000884434 5.00054e-05 0.00264374 4e-05 
-0.00097 -2.42336e-05 0.00265908 3e-05 
-0.000829714 1.43617e-05 0.00270589 5e-05 
-0.000950003 0.000100003 0.00267981 5e-05 
-0.000869369 0.000100002 0.00273895 5e-05 
-0.000837957 3.52881e-05 0.00279303 4e-05 
-0.00093585 6.73222e-06 0.00273637 6e-05 
-0.00098 2.42859e-05 0.00280074 2e-05 
-0.000673729 -3.77812e-05 0.00264273 5e-05 
-0.000766745 -7.62531e-06 0.00266171 3e-05 
-0.000736653 -6.70613e-06 0.00274882 4e-05 
-0.000721874 0.000110003 0.00266601 4e-05 
-0.000713327 3.22968e-05 0.00268299 4e-05 
-0.000810935 0.000100003 0.0026578 5e-05 
-0.000761127 9.0002e-05 0.00275579 6e-05 
-0.000686304 3.58631e-05 0.00279413 4e-05 
-0.000641962 9.00023e-05 0.0027227 6e-05 
-0.000588645 1.32208e-05 0.00265536 5e-05 
-0.000460358 4.41102e-05 0.00264929 5e-05 
-0.000495526 3.9752e-05 0.00281602 4e-05 
-0.000552493 3.0776e-05 0.00274693 5e-05 
-0.00054317 0.000100003 0.00267537 5e-05 
-0.000516538 0.000110001 0.0027707 4e-05 
-0.000515576 -2.16623e-06 0.00268407 3e-05 
-0.000476232 0.000120002 0.00271435 3e-05 
-0.000466244 5.50378e-05 0.00273843 4e-05 
-0.000479846 -1.93729e-05 0.00276446 4e-05 
-0.000429134 0.00013 0.00263956 2e-05 
-0.000372436 0.000110001 0.00264834 4e-05 
-0.000418472 -1.75936e-05 0.00267824 3e-05 
-0.000429275 0.000100003 0.00280706 5e-05 
-0.000362538 1.53802e-05 0.00275429 7e-05 
-0.000407217 0.000110003 0.00272038 4e-05 
-0.000324908 0.000110001 0.00271269 4e-05 
-0.000337055 0.000110001 0.00280626 4e-05 
-0.000181554 -1.62785e-05 0.00276316 6e-05 
-0.000259888 1.40967e-05 0.00269216 5e-05 
-0.000189493 0.000100002 0.00267655 5e-05 
-0.00024581 9.00023e-05 0.00277051 6e-05 
-0.000124754 2.37998e-05 0.00267791 5e-05 
-0.000125906 9.00043e-05 0.00276575 6e-05 
-9.97415e-05 0.000110002 0.00267133 4e-05 
-3.27748e-05 0.000120001 0.00264658 3e-05 
-6.86752e-05 -3.43666e-06 0.0027561 5e-05 
5.19053e-05 -1.46625e-05 0.0026725 3e-05 
4.4601e-05 0.000100003 0.00265019 5e-05 
3.14147e-05 3.9701e-05 0.00274124 6e-05 
-4.52892e-05 6.60468e-05 0.00266965 3e-05 
-3.74712e-05 0.000110002 0.00272357 4e-05 
5.07374e-05 0.000120001 0.00279217 3e-05 
-1.98004e-05 2.01664e-05 0.00281487 3e-05 
-2.48365e-05 0.000100002 0.00281403 5e-05 
0.000191331 -4.11903e-05 0.00275504 6e-05 
9.95234e-05 0.000110003 0.00272078 4e-05 
0.000109996 -4.27509e-06 0.0028016 4e-05 
0.000131792 2.66412e-05 0.00267596 6e-05 
0.000179165 0.000110001 0.00271203 4e-05 
0.000236292 5.94135e-05 0.00276008 5e-05 
0.000142545 9.00035e-05 0.00280881 6e-05 
0.00025704 0.000110002 0.00268859 4e-05 
0.000227447 0.000120001 0.00281174 3e-05 
0.000309834 0.000110001 0.00277158 4e-05 
0.000311224 9.3561e-06 0.00280342 5e-05 
0.000379951 4.28021e-05 0.00264198 3e-05 
0.000303323 4.60464e-05 0.00270153 4e-05 
0.000324208 0.00013 0.00270176 2e-05 
0.000391673 9.00036e-05 0.00271771 6e-05 
0.000448908 5.32864e-05 0.00279103 4e-05 
0.000373077 6.00038e-05 0.0028005 3e-05 
0.000372771 0.000120001 0.00280055 3e-05 
0.000402686 -1.87864e-05 0.00272967 5e-05 
0.000469673 2.75766e-05 0.00267168 5e-05 
0.000538463 6.03163e-05 0.00269056 2e-05 
0.000554977 4.86313e-05 0.00276088 3e-05 
0.000611463 9.0003e-05 0.00270433 6e-05 
0.000500063 0.000100002 0.00273358 5e-05 
0.000567766 0.000110002 0.00279202 4e-05 
0.000558298 5.3088e-06 0.002704 4e-05 
0.000625949 3.3136e-05 0.00277257 3e-05 
0.000645016 5.96431e-05 0.00263836 2e-05 
0.000709917 1.34353e-07 0.00281753 6e-05 
0.000683192 -6.12922e-06 0.00270072 6e-05 
0.000790954 0.000110003 0.00271395 4e-05 
0.000738474 7.05947e-05 0.0026682 4e-05 
0.000688814 0.000120001 0.00266938 3e-05 
0.000712542 0.000110001 0.00273456 4e-05 
0.000656369 0.000100001 0.00280424 5e-05 
0.000782797 2.38406e-05 0.00273863 5e-05 
0.00075589 0.000100002 0.002814 5e-05 
0.000836024 3.02492e-05 0.00265422 5e-05 
0.000950002 2.62198e-05 0.00265148 5e-05 
0.000894306 1.8102e-05 0.00272171 4e-05 
0.00087309 0.000110002 0.00267332 4e-05 
0.000950002 0.000100002 0.00271898 5e-05 
0.000860839 9.00029e-05 0.00278262 6e-05 
0.000959986 0.000110001 0.00280794 4e-05 
0.000848533 -8.91099e-06 0.00279065 4e-05 
-0.00081958 -9.07223e-05 0.00288918 5e-05 
-0.000713366 -7.06167e-05 0.00290684 5e-05 
-0.000788769 -7.16621e-05 0.00299304 6e-05 
-0.000625887 -5.11556e-05 0.00289856 4e-05 
-0.000567824 -5.68606e-05 0.00297619 5e-05 
-0.000300605 -7.93195e-05 0.00288138 5e-05 
-0.000381829 -5.49738e-05 0.00282269 3e-05 
-0.000289062 -5.86612e-05 0.00295789 3e-05 
-9.24163e-05 -6.28252e-05 0.00281942 4e-05 
-0.000211818 -4.8592e-05 0.00287825 4e-05 
-0.000146072 -6.55426e-05 0.00292056 4e-05 
3.70036e-06 -5.10856e-05 0.00297246 5e-05 
0.000335917 -4.82979e-05 0.00297435 5e-05 
0.000350454 -5.84285e-05 0.00286034 4e-05 
0.000400276 -6.07709e-05 0.00294981 2e-05 
0.000565337 -4.48392e-05 0.0029069 4e-05 
0.000928417 -5.70781e-05 0.00292411 6e-05 
-0.000899099 -3.31755e-05 0.00295935 4e-05 
-0.00089243 -1.30469e-05 0.00286162 6e-05 
-0.000940003 9.00031e-05 0.00282268 6e-05 
-0.000960001 1.05614e-05 0.00293146 4e-05 
-0.00095 0.000100002 0.00293176 5e-05 
-0.000832792 9.00037e-05 0.00287657 6e-05 
-0.000890923 4.61101e-05 0.00292943 3e-05 
-0.000863395 0.000100002 0.00298176 5e-05 
-0.000690453 0.000110003 0.00282389 4e-05 
-0.000779291 -2.44313e-05 0.00282607 5e-05 
-0.000743517 5.51954e-05 0.00284797 4e-05 
-0.000652112 1.58709e-05 0.00286364 4e-05 
-0.000777044 0.000110001 0.00295715 4e-05 
-0.000685681 9.0002e-05 0.00292175 6e-05 
-0.000772404 9.00314e-06 0.00292007 5e-05 
-0.000692363 -4.15517e-06 0.00297854 5e-05 
-0.00053777 4.63977e-05 0.00287048 2e-05 
-0.000576242 -1.91769e-05 0.00283024 5e-05 
-0.000523753 0.000130001 0.0028268 2e-05 
-0.000565986 0.000120001 0.00291267 3e-05 
-0.000592826 9.00021e-05 0.00283218 6e-05 
-0.000582215 2.45714e-05 0.00291996 5e-05 
-0.000595689 0.000100003 0.00298421 5e-05 
-0.000507168 0.000110003 0.00297141 4e-05 
-0.000468936 8.03047e-06 0.00295593 7e-05 
-0.00049449 0.000100002 0.00288287 5e-05 
-0.000501238 3.07665e-05 0.00287507 2e-05 
-0.000436321 -1.18659e-05 0.00283119 4e-05 
-0.00035811 2.10817e-06 0.00287347 5e-05 
-0.000371617 0.000100002 0.00288876 5e-05 
-0.000427761 0.000110002 0.00295839 4e-05 
-0.000432314 5.12307e-05 0.0028704 3e-05 
-0.00034158 1.03673e-05 0.00298191 6e-05 
-0.000345229 0.000110003 0.00297422 4e-05 
-0.000266304 0.000110001 0.00298729 4e-05 
-0.000142069 -1.43474e-05 0.00285922 4e-05 
-0.00026916 -9.03878e-07 0.00282788 5e-05 
-0.000183086 5.09397e-05 0.00283789 4e-05 
-0.000265504 -5.46395e-06 0.00291897 4e-05 
-0.000234108 5.16536e-05 0.00296587 3e-05 
-0.000171969 0.000100003 0.00295169 5e-05 
-0.000194496 0.000120002 0.00283809 3e-05 
-0.000262076 9.00028e-05 0.0028894 6e-05 
-0.00019259 0.00013 0.00289156 2e-05 
-0.0001335 0.000110001 0.00287095 4e-05 
-0.000190501 2.14461e-05 0.00291188 4e-05 
-0.000124265 0.00013 0.00299324 2e-05 
-0.000253669 -2.81307e-05 0.00301 4e-05 
-4.91834e-05 -2.87062e-05 0.0028906 5e-05 
-8.36146e-05 3.62692e-05 0.00283871 4e-05 
2.3651e-05 2.22952e-05 0.00293264 3e-05 
-2.4603e-05 4.58336e-05 0.00287512 3e-05 
-9.62561e-05 0.00013 0.00282837 2e-05 
5.44383e-05 4.84031e-05 0.00297703 3e-05 
-8.50926e-05 5.75932e-05 0.00292613 5e-05 
-7.84019e-05 0.000120001 0.00297573 3e-05 
-6.48598e-05 0.000120001 0.00288035 3e-05 
6.08738e-06 0.000100002 0.00292536 5e-05 
7.90691e-05 0.00013 0.0028383 2e-05 
5.11156e-05 4.42241e-05 0.00284936 5e-05 
9.67294e-05 -2.82659e-05 0.00291839 6e-05 
0.00021474 4.20514e-06 0.00287458 7e-05 
0.000162963 0.00013 0.00287502 2e-05 
0.000211262 0.000110003 0.00290448 4e-05 
0.00011563 9.00026e-05 0.00292579 6e-05 
0.000263397 0.000120001 0.00295011 3e-05 
0.0002004 0.000100001 0.00299518 5e-05 
0.000268827 2.84586e-05 0.00297892 5e-05 
0.000184844 -3.87172e-06 0.00298013 4e-05 
0.000400202 1.48334e-06 0.00282769 4e-05 
0.000409258 -2.46276e-05 0.00290276 4e-05 
0.000288929 0.000100001 0.00285885 5e-05 
0.000330806 1.94398e-05 0.00290097 5e-05 
0.00034482 0.00013 0.0028958 2e-05 
0.000340291 0.000100002 0.00295944 5e-05 
0.000411461 9.00033e-05 0.00287617 6e-05 
0.000443503 0.000100002 0.00298092 5e-05 
0.00038704 3.10606e-05 0.00299352 4e-05 
0.000538573 5.49752e-05 0.00282396 3e-05 
0.000545452 -3.81247e-05 0.0029841 4e-05 
0.000478765 1.34112e-05 0.00294544 5e-05 
0.000622549 -3.47026e-05 0.00294594 3e-05 
0.000582388 3.44856e-05 0.00294585 5e-05 
0.000488631 4.80841e-05 0.00285649 3e-05 
0.000607219 2.29341e-05 0.00284967 5e-05 
0.000630798 0.000110002 0.00293853 4e-05 
0.000494531 0.000110002 0.00282421 4e-05 
0.00059343 0.000110003 0.00286779 4e-05 
0.000515243 0.000100003 0.00291122 5e-05 
0.0007635 -2.10498e-06 0.00290194 4e-05 
0.000732584 -2.27327e-05 0.00298026 4e-05 
0.000677843 1.75949e-05 0.00292129 5e-05 
0.000672202 8.93527e-05 0.002886 3e-05 
0.000782547 3.85595e-05 0.00296814 4e-05 
0.000723766 0.000120001 0.00288467 3e-05 
0.000733244 6.0936e-05 0.00288004 3e-05 
0.000807354 3.29728e-05 0.00284496 4e-05 
0.000717058 0.000100003 0.00296217 5e-05 
0.000649996 0.000130001 0.00286717 2e-05 
0.000798674 0.000100002 0.00290439 5e-05 
0.000824536 -4.01207e-05 0.00295606 5e-05 
0.000860195 -9.62339e-06 0.00286209 3e-05 
0.000858178 3.36783e-05 0.00291705 4e-05 
0.000940002 1.0878e-05 0.00282588 6e-05 
0.000867463 0.000110001 0.00296155 4e-05 
0.000907654 0.000100003 0.00288165 5e-05 
0.000959707 0.000110002 0.00295439 4e-05 
0.00097878 0.00013 0.00289711 2e-05 
0.000960002 3.77164e-05 0.00292012 4e-05 
0.00098 1.11659e-05 0.00297007 2e-05 
0.000907077 5.23243e-05 0.00296354 3e-05 
-0.000455713 -5.38512e-05 0.00318111 5e-05 
-0.000382415 -5.08081e-05 0.0030637 5e-05 
-0.000136898 -5.76961e-05 0.00313822 7e-05 
-4.78686e-05 -5.0038e-05 0.00305813 5e-05 
2.24646e-06 -4.48026e-05 0.0031327 4e-05 
0.000428413 -4.66221e-05 0.00301232 5e-05 
0.000579442 -4.33782e-05 0.00309507 6e-05 
0.000650554 -6.56919e-05 0.00301417 5e-05 
0.000779447 -4.70691e-05 0.00316991 5e-05 
0.00096 -5.32394e-05 0.0031121 4e-05 
-0.000838884 -2.69159e-05 0.00310523 4e-05 
-0.000923547 -2.32138e-05 0.0030728 4e-05 
-0.00097 3.90221e-06 0.00311759 3e-05 
-0.00096 1.29023e-05 0.00301142 4e-05 
-0.00085509 1.01364e-05 0.00302483 5e-05 
-0.000901128 5.1605e-05 0.0030901 4e-05 
-0.000970001 6.08065e-05 0.00309857 3e-05 
-0.000950002 0.000100001 0.00303176 5e-05 
-0.000969507 0.000120001 0.00310835 3e-05 
-0.000889781 0.000120003 0.00308047 3e-05 
-0.000903673 0.000110002 0.00314835 4e-05 
-0.000860046 3.38245e-05 0.00316818 5e-05 
-0.000955204 5.16071e-05 0.00316664 4e-05 
-0.000925475 -1.13325e-05 0.00315924 3e-05 
-0.000970002 0.000120002 0.00316835 3e-05 
-0.000664871 6.58133e-05 0.0030059 3e-05 
-0.00067447 -6.73508e-06 0.00307588 3e-05 
-0.000763912 4.51152e-05 0.00300206 4e-05 
-0.000773927 -3.59262e-06 0.00306477 4e-05 
-0.000714511 4.99405e-05 0.00306668 4e-05 
-0.000804938 9.00023e-05 0.00308145 6e-05 
-0.000715605 0.000110002 0.00312169 4e-05 
-0.000718671 0.000110003 0.00301401 4e-05 
-0.000765282 5.25776e-06 0.00315392 5e-05 
-0.000670458 3.53519e-05 0.0031438 5e-05 
-0.000640042 0.000100002 0.00307383 5e-05 
-0.000488472 -2.64316e-05 0.00307975 6e-05 
-0.000580006 -6.15401e-06 0.00315356 5e-05 
-0.000478826 5.4098e-05 0.00309066 2e-05 
-0.000532758 5.99604e-05 0.00301313 3e-05 
-0.000610289 1.38136e-05 0.00303277 5e-05 
-0.000536497 0.000120002 0.00303417 3e-05 
-0.000546374 0.000120004 0.00314992 3e-05 
-0.000614961 0.000110001 0.00315969 4e-05 
-0.000547906 6.53789e-05 0.0030915 5e-05 
-0.000512874 3.62306e-05 0.00316339 3e-05 
-0.00046926 0.000100004 0.00314264 5e-05 
-0.000454542 0.000100002 0.00304373 5e-05 
-0.000402269 3.94779e-05 0.00304165 3e-05 
-0.000305738 -2.90679e-05 0.00305677 3e-05 
-0.000402631 2.86729e-05 0.00312092 5e-05 
-0.000329109 4.50788e-06 0.00310066 3e-05 
-0.000384352 0.00013 0.00313696 2e-05 
-0.000326555 9.00019e-05 0.00307041 6e-05 
-0.000337999 0.000120003 0.00315448 3e-05 
-0.000317815 4.4483e-05 0.00317147 5e-05 
-0.000359168 -3.53226e-05 0.00316691 4e-05 
-0.000146884 -1.74057e-06 0.00301016 7e-05 
-0.000239504 1.29025e-05 0.00310098 6e-05 
-0.000262549 4.93067e-05 0.00302196 3e-05 
-0.000143212 4.80272e-05 0.00310851 4e-05 
-0.000197828 0.000100003 0.00304829 5e-05 
-0.000256327 0.000110001 0.00313873 4e-05 
-0.000176699 0.000110001 0.00314643 4e-05 
-9.78589e-05 0.000100004 0.00305071 5e-05 
4.13673e-05 0.000110001 0.0030076 4e-05 
-2.13995e-05 4.1263e-05 0.00300147 5e-05 
-3.06955e-05 0.000120002 0.00301212 3e-05 
-6.82108e-05 2.70453e-05 0.00306477 3e-05 
4.23335e-05 -7.00476e-06 0.00306154 5e-05 
-5.08345e-05 3.33137e-05 0.00314261 5e-05 
4.34826e-05 4.32736e-05 0.00313618 4e-05 
-8.40419e-05 0.000110003 0.00317601 4e-05 
-3.84272e-06 0.000100002 0.00308478 5e-05 
8.50218e-05 0.000110001 0.00307464 4e-05 
8.35633e-05 0.000110003 0.00315463 4e-05 
0.000173976 -1.01743e-05 0.0031179 3e-05 
0.000104562 -7.55975e-06 0.00312656 4e-05 
0.000121333 4.1885e-05 0.00302455 5e-05 
0.000111291 0.000120003 0.00301053 3e-05 
0.000229824 2.24136e-05 0.0030708 5e-05 
0.000184456 0.00013 0.00311994 2e-05 
0.000152866 6.76256e-05 0.00311589 5e-05 
0.000209126 0.000120001 0.00307214 3e-05 
0.000151544 0.000120001 0.00305528 3e-05 
0.000243999 0.000100002 0.00314131 5e-05 
0.00027032 1.08582e-05 0.00317819 5e-05 
0.000327724 7.45645e-06 0.00305696 5e-05 
0.000415688 2.31003e-05 0.00306779 4e-05 
0.000377177 0.000110001 0.00304092 4e-05 
0.000287887 0.000100002 0.00304613 5e-05 
0.000362993 8.00023e-05 0.0031458 7e-05 
0.000298095 0.000130003 0.00310855 2e-05 
0.000423035 -1.21586e-05 0.00314685 4e-05 
0.000472817 -3.16038e-05 0.00310164 3e-05 
0.000599184 -4.36586e-06 0.00301373 3e-05 
0.00059357 4.87859e-05 0.00305893 4e-05 
0.000501685 1.42328e-05 0.00304278 5e-05 
0.000546809 0.000110001 0.00310455 4e-05 
0.000539713 0.000100004 0.00300818 5e-05 
0.000501376 3.1784e-05 0.00314122 5e-05 
0.000460982 0.000100002 0.00307938 5e-05 
0.000597107 4.48224e-05 0.00313875 4e-05 
0.000628558 0.000110001 0.00301849 4e-05 
0.000529619 -3.74014e-05 0.00316978 3e-05 
0.000466323 0.000110002 0.00316866 4e-05 
0.000626577 0.000110002 0.00309847 4e-05 
0.000797738 0.000110003 0.00300077 4e-05 
0.000791705 -1.5777e-05 0.00303624 4e-05 
0.000736159 -2.31242e-06 0.00309432 4e-05 
0.000672987 3.15679e-05 0.00302025 5e-05 
0.000757354 5.60648e-05 0.00304389 4e-05 
0.000676902 4.89708e-05 0.0031104 4e-05 
0.000789133 4.94151e-05 0.00314548 5e-05 
0.000699441 0.000110002 0.00305558 4e-05 
0.000803691 0.000110002 0.00308055 4e-05 
0.000724029 0.000110003 0.0031317 4e-05 
0.000923673 -2.66341e-05 0.00303418 5e-05 
0.000851999 -1.57585e-05 0.00310306 5e-05 
0.000858127 4.85165e-05 0.0030267 5e-05 
0.000960001 5.18734e-05 0.00300935 4e-05 
0.00094 4.20521e-05 0.00313489 6e-05 
0.000910483 0.000120001 0.00301586 3e-05 
0.000883399 0.000110001 0.00308737 4e-05 
0.000873937 0.000110001 0.0031668 4e-05 
0.000960002 0.000110003 0.00306431 4e-05 
-0.000630434 -4.23835e-05 0.00334694 4e-05 
-0.000168022 -6.33156e-05 0.00331621 4e-05 
-0.000259777 -4.25673e-05 0.00320544 6e-05 
-0.000246615 -5.50525e-05 0.00330377 4e-05 
0.000681294 -6.3859e-05 0.00333996 5e-05 
0.00078353 -5.77215e-05 0.00327932 6e-05 
0.0009405 -4.07634e-05 0.00319094 4e-05 
0.00094 -4.85758e-05 0.00329063 6e-05 
-0.000920695 1.93496e-05 0.00321829 3e-05 
-0.000960001 1.53552e-05 0.00327608 4e-05 
-0.000861123 0.000110001 0.00321609 4e-05 
-0.000950002 0.000100002 0.00324318 5e-05 
-0.000880874 0.000120002 0.00328249 3e-05 
-0.000878642 5.03516e-05 0.00326647 4e-05 
-0.000843097 1.90817e-05 0.00333095 4e-05 
-0.00096 -2.48135e-05 0.00334526 4e-05 
-0.000930001 8.00034e-05 0.00335986 7e-05 
-0.000667784 2.61033e-05 0.00326816 3e-05 
-0.000766568 -3.70232e-05 0.00323491 4e-05 
-0.000686199 0.000110002 0.00319608 4e-05 
-0.000805351 3.27867e-05 0.00323964 4e-05 
-0.000776467 0.000100002 0.00318722 5e-05 
-0.000744424 1.64513e-05 0.00330384 5e-05 
-0.00080746 0.000100001 0.0033072 5e-05 
-0.000729506 0.000110001 0.00326335 4e-05 
-0.000717751 4.10094e-05 0.00322146 4e-05 
-0.000662268 3.04391e-05 0.00333781 4e-05 
-0.000696002 -3.21659e-05 0.00319754 4e-05 
-0.000641854 0.000100003 0.00328449 5e-05 
-0.000718081 0.000100002 0.00335205 5e-05 
-0.000699997 -3.45934e-05 0.0033465 3e-05 
-0.000622125 -3.36314e-05 0.0032282 4e-05 
-0.000618718 4.5468e-05 0.00321673 4e-05 
-0.000585021 1.48166e-05 0.00329435 5e-05 
-0.000530733 9.00021e-05 0.00323331 6e-05 
-0.000558221 0.000100002 0.00333935 5e-05 
-0.000492059 -1.21818e-05 0.00326928 5e-05 
-0.000454339 3.37517e-05 0.0032017 4e-05 
-0.000353051 -3.42272e-05 0.00332214 7e-05 
-0.000381328 1.28316e-05 0.00322683 4e-05 
-0.000393777 0.000100003 0.00320823 5e-05 
-0.000433946 8.00031e-05 0.00331952 7e-05 
-0.000315428 0.000120002 0.00335546 3e-05 
-0.00037365 0.00013 0.00327476 2e-05 
-0.000309375 7.90114e-05 0.00327557 6e-05 
-0.000295349 0.000120001 0.00319668 3e-05 
-0.00022685 5.79756e-05 0.00319187 4e-05 
-0.000103362 -2.28624e-05 0.00326844 5e-05 
-0.000138655 4.35802e-05 0.00320256 5e-05 
-0.000205357 2.36759e-05 0.00327436 5e-05 
-0.000159582 0.000120003 0.00321356 3e-05 
-0.000217298 0.000110002 0.00325189 4e-05 
-0.000161449 0.000100003 0.00332175 5e-05 
-0.000246379 0.000110001 0.00334979 4e-05 
-0.000102962 5.28604e-05 0.00329424 3e-05 
-0.000135762 1.00687e-05 0.00335713 5e-05 
-0.000103188 0.000110002 0.00325381 4e-05 
-6.14007e-05 -2.10333e-05 0.00320035 3e-05 
1.52552e-05 -1.72228e-07 0.00320977 5e-05 
-2.53749e-05 -4.04758e-05 0.00326567 3e-05 
-6.7741e-06 2.05186e-05 0.00329454 4e-05 
-5.57908e-05 4.76685e-05 0.00323744 4e-05 
-3.91356e-05 0.000120001 0.00328026 3e-05 
7.74831e-05 3.45141e-05 0.00326476 4e-05 
3.47773e-06 0.000100002 0.00319445 5e-05 
3.32826e-05 0.000100003 0.00330785 5e-05 
8.46283e-05 0.000110001 0.00323462 4e-05 
6.70773e-05 9.88844e-06 0.00336112 6e-05 
0.00011732 -3.82576e-05 0.00322987 5e-05 
0.000180525 1.43762e-05 0.00318313 4e-05 
0.00015154 3.2061e-05 0.00324673 3e-05 
0.000104719 4.13636e-05 0.00318985 4e-05 
0.000228768 4.09384e-05 0.00326562 5e-05 
0.00014368 9.00023e-05 0.00331514 6e-05 
0.000170287 0.000100002 0.00320888 5e-05 
0.000217502 0.000120002 0.00327028 3e-05 
0.00023941 0.000110002 0.00333601 4e-05 
0.000180963 -1.77853e-06 0.00332878 4e-05 
0.000271203 0.000110002 0.00322651 4e-05 
0.000290185 -1.0295e-05 0.0032639 3e-05 
0.000362504 -7.91672e-06 0.00329802 5e-05 
0.000278361 3.77864e-05 0.00332831 3e-05 
0.000404888 1.15893e-05 0.00322106 4e-05 
0.000380092 6.87821e-05 0.00329403 2e-05 
0.000320494 4.90332e-05 0.00324242 4e-05 
0.000371522 0.000110003 0.00325128 4e-05 
0.000328631 0.000100001 0.00332977 5e-05 
0.000422704 6.39637e-05 0.00326395 3e-05 
0.000393178 4.99967e-05 0.0033439 3e-05 
0.000417155 0.000110002 0.00331699 4e-05 
0.000438294 0.000120001 0.00323243 3e-05 
0.000407402 -3.77487e-06 0.0033664 3e-05 
0.000476399 -2.33626e-05 0.00321303 4e-05 
0.000556705 -3.34259e-05 0.00331374 5e-05 
0.000554574 1.20192e-05 0.00321262 4e-05 
0.000552149 0.000100003 0.00319383 5e-05 
0.000474696 2.36359e-05 0.00330944 5e-05 
0.000493453 0.00013 0.00321884 2e-05 
0.00055793 0.000120003 0.00327107 3e-05 
0.000489753 0.000110001 0.00328339 4e-05 
0.000480592 5.5547e-05 0.0032255 4e-05 
0.000570071 0.000110002 0.00333928 4e-05 
0.000556094 5.09656e-05 0.00328248 4e-05 
0.000627206 0.000110002 0.00327033 4e-05 
0.00060606 5.51525e-05 0.00323233 3e-05 
0.000639986 2.83351e-05 0.00330592 5e-05 
0.000799624 0.000120001 0.00318773 3e-05 
0.000707663 -9.93504e-06 0.00328708 3e-05 
0.000665992 -1.85058e-05 0.00319658 7e-05 
0.000742295 8.00027e-05 0.00326041 7e-05 
0.000670145 0.000110001 0.00333783 4e-05 
0.000651694 0.000100003 0.00318431 5e-05 
0.00071071 4.38426e-05 0.00335938 4e-05 
0.000980001 4.35038e-06 0.00319302 2e-05 
0.000960001 0.000110002 0.00320548 4e-05 
0.00097 4.30035e-05 0.00322311 3e-05 
0.000825795 0.000110002 0.00332543 4e-05 
0.000860922 1.23076e-05 0.00322011 6e-05 
0.000970001 3.7029e-06 0.00335774 3e-05 
0.000846501 0.000110002 0.00324195 4e-05 
0.000830606 2.12699e-05 0.00333968 5e-05 
0.000930003 8.00037e-05 0.00330697 7e-05 
-0.000871212 -6.52642e-05 0.0035107 5e-05 
-0.00080624 -5.39913e-05 0.00343552 5e-05 
-0.000105952 -5.91748e-05 0.0033839 3e-05 
-0.000100156 -8.2455e-05 0.00346021 5e-05 
-0.000189681 -4.83154e-05 0.00348884 5e-05 
3.40031e-05 -8.10364e-05 0.00349972 4e-05 
0.000251417 -4.0783e-05 0.00342742 6e-05 
0.000443491 -9.01613e-05 0.00333126 7e-05 
0.000623661 -5.62607e-05 0.00346465 5e-05 
-0.000885812 -1.65983e-05 0.00338842 4e-05 
-0.000940002 9.58308e-06 0.00346868 6e-05 
-0.000849338 4.13099e-05 0.00342984 4e-05 
-0.00097 0.000120001 0.00344233 3e-05 
-0.000851557 0.000110001 0.00347079 4e-05 
-0.000920611 0.000120001 0.00347639 3e-05 
-0.000829764 0.000110001 0.00339381 4e-05 
-0.000900441 8.7132e-05 0.00344457 2e-05 
-0.000871406 1.95687e-05 0.00354075 4e-05 
-0.00078104 0.00013 0.00336506 2e-05 
-0.000795952 -4.35981e-05 0.00334672 4e-05 
-0.000792633 2.33791e-05 0.00349739 5e-05 
-0.000784749 4.55866e-05 0.00337883 4e-05 
-0.000689992 -2.92793e-08 0.0034398 7e-05 
-0.0007561 0.000100004 0.00344454 5e-05 
-0.000675837 0.000110001 0.00348401 4e-05 
-0.000644354 5.67838e-05 0.00351683 3e-05 
-0.000474943 5.15925e-06 0.00349952 3e-05 
-0.000592981 -3.19337e-05 0.00352024 6e-05 
-0.000502851 8.03757e-05 0.00337741 2e-05 
-0.000558782 -3.48952e-05 0.00342632 4e-05 
-0.000586549 5.05429e-05 0.00346406 4e-05 
-0.000480689 0.000120001 0.00339836 3e-05 
-0.000523629 3.53579e-05 0.0034112 4e-05 
-0.000598886 0.000110001 0.00351614 4e-05 
-0.000633419 0.000100003 0.00340527 5e-05 
-0.000546934 0.000110002 0.00342808 4e-05 
-0.000493164 0.000130001 0.00344573 2e-05 
-0.000500919 9.00023e-05 0.00351458 6e-05 
-0.000597156 2.06052e-05 0.00338334 4e-05 
-0.000403823 -3.33079e-05 0.00352312 5e-05 
-0.000433284 -6.46767e-06 0.00342059 6e-05 
-0.000279505 -2.03865e-05 0.00346395 4e-05 
-0.000355204 5.16417e-05 0.0033909 4e-05 
-0.0004272 4.14413e-05 0.00349705 3e-05 
-0.000347398 3.66635e-05 0.0034793 5e-05 
-0.000347966 0.000120001 0.00347877 3e-05 
-0.000368418 0.000120001 0.0033836 3e-05 
-0.000289176 0.000100003 0.00342833 5e-05 
-0.000417663 0.000100002 0.00344339 5e-05 
-0.000305098 0.000110001 0.00353923 4e-05 
-0.000394529 0.000100003 0.00354067 5e-05 
-0.000245064 1.3625e-05 0.00337644 6e-05 
-0.000172267 1.37283e-07 0.00342762 3e-05 
-0.000187323 2.51209e-05 0.00347639 2e-05 
-0.000245359 5.23241e-05 0.00350453 5e-05 
-0.000138642 0.000120001 0.0035107 3e-05 
-0.000171347 9.00039e-05 0.0034324 6e-05 
-0.000143391 3.58945e-05 0.00354238 6e-05 
-9.10941e-05 1.63305e-05 0.0034476 5e-05 
-6.05454e-05 9.00022e-05 0.00336439 6e-05 
-2.00722e-05 -3.75651e-05 0.00345989 4e-05 
7.81657e-05 -4.02999e-05 0.0034469 4e-05 
-7.62693e-05 0.000110002 0.00354086 4e-05 
-3.90718e-05 -1.77726e-05 0.00336931 5e-05 
-7.75947e-05 0.000110001 0.00346087 4e-05 
3.79585e-06 4.752e-05 0.00344284 5e-05 
-3.7038e-06 0.000110001 0.00350718 4e-05 
1.1134e-05 0.000120002 0.0034098 3e-05 
6.45147e-05 0.000110003 0.0034654 4e-05 
7.62992e-05 0.000110001 0.00338627 4e-05 
-5.00403e-05 5.77559e-05 0.00350236 3e-05 
8.63268e-05 3.37695e-05 0.003476 4e-05 
-6.78792e-05 -2.67716e-05 0.00352312 4e-05 
0.00015837 -1.98111e-05 0.00348222 5e-05 
0.000176012 7.53108e-06 0.00340858 3e-05 
0.000227836 4.20287e-05 0.00337657 4e-05 
0.000132233 6.15486e-05 0.00341666 4e-05 
0.000146942 0.000100002 0.00350012 5e-05 
0.00019417 0.000110003 0.00340199 4e-05 
0.00020672 5.0766e-05 0.00345427 4e-05 
0.000236383 0.000110002 0.00350039 4e-05 
0.000273627 2.86679e-05 0.00351026 5e-05 
0.000349046 -2.77432e-05 0.0034764 5e-05 
0.000281955 0.000100002 0.00341912 5e-05 
0.000305267 0.000120002 0.00349299 3e-05 
0.000347964 6.69099e-05 0.00347692 4e-05 
0.000334817 2.03175e-05 0.00338987 5e-05 
0.000404809 0.000110001 0.00351314 4e-05 
0.000392941 0.000100004 0.00340634 5e-05 
0.000446714 1.2491e-05 0.0034457 6e-05 
0.000538111 -2.6173e-05 0.00341166 3e-05 
0.000575511 3.56467e-05 0.00336829 4e-05 
0.000509351 1.67981e-05 0.00338122 3e-05 
0.000585586 5.27942e-06 0.00343055 3e-05 
0.000619604 0.000120001 0.00338772 3e-05 
0.000487143 0.000100003 0.00337279 5e-05 
0.000582241 1.02111e-05 0.00352682 5e-05 
0.000483223 0.000120001 0.00352725 3e-05 
0.000464925 0.000110001 0.00345943 4e-05 
0.000563476 9.00022e-05 0.00345136 6e-05 
0.000534838 5.41988e-06 0.00346256 3e-05 
0.000494405 6.34109e-05 0.00350256 3e-05 
0.000469804 -2.49564e-05 0.00354652 5e-05 
0.000723304 -2.65445e-05 0.00342268 5e-05 
0.000643166 -4.06391e-07 0.00339115 4e-05 
0.000775819 4.48576e-05 0.00340708 4e-05 
0.000722548 8.34456e-06 0.0035375 7e-05 
0.000643582 3.15053e-05 0.00346451 4e-05 
0.000755274 0.000110002 0.00336544 4e-05 
0.000772269 0.000100002 0.00347811 5e-05 
0.000687144 0.000100002 0.00342564 5e-05 
0.000646507 0.000100003 0.00352281 5e-05 
0.000722556 0.000120002 0.00353751 3e-05 
0.000817678 3.44272e-05 0.00347196 3e-05 
0.000970001 0.000120002 0.00338943 3e-05 
0.000949755 -3.4187e-05 0.00342523 5e-05 
0.00089206 1.2846e-05 0.003492 5e-05 
0.000970001 2.31515e-05 0.00347721 3e-05 
0.000958567 5.40717e-05 0.00340998 4e-05 
0.00086429 9.00022e-05 0.00341868 6e-05 
0.000858882 0.000100003 0.00352809 5e-05 
0.000950002 0.000100002 0.0034869 5e-05 
-0.000712248 -4.82069e-05 0.00376063 4e-05 
-0.00070313 -6.32078e-05 0.00364149 5e-05 
-0.000493596 -6.18467e-05 0.00355668 5e-05 
0.000224574 -4.52153e-05 0.00364302 5e-05 
0.000506349 -4.72919e-05 0.0036531 3e-05 
0.000845618 -5.4664e-05 0.0036617 6e-05 
-0.000950001 -1.70037e-05 0.00358244 5e-05 
-0.000940001 9.00029e-05 0.003559 6e-05 
-0.000869349 3.06378e-05 0.00364011 6e-05 
-0.00098 5.82523e-05 0.00362058 2e-05 
-0.000960001 2.58422e-05 0.00371809 4e-05 
-0.000950002 0.000100003 0.00366809 5e-05 
-0.000830465 0.000100001 0.00355771 5e-05 
-0.000829927 0.00013 0.00362095 2e-05 
-0.00065332 -4.25513e-05 0.00371896 3e-05 
-0.000804449 -3.35644e-05 0.00357874 5e-05 
-0.000779464 -7.74463e-06 0.00366126 4e-05 
-0.000707895 1.78812e-05 0.00356731 6e-05 
-0.000744433 0.000110001 0.00353324 4e-05 
-0.000765214 9.00024e-05 0.0036457 6e-05 
-0.00064535 9.00046e-05 0.00364001 6e-05 
-0.000702427 1.77471e-05 0.00370018 5e-05 
-0.000701614 0.000110001 0.00372023 4e-05 
-0.000681245 0.000120001 0.00356166 3e-05 
-0.000774612 4.40333e-05 0.0037225 3e-05 
-0.000520294 -1.92728e-05 0.00363178 3e-05 
-0.000627475 0.00013 0.00356765 2e-05 
-0.000616241 -1.52037e-05 0.00365356 5e-05 
-0.000536213 3.05769e-05 0.00369229 5e-05 
-0.000557903 4.09017e-05 0.00359484 5e-05 
-0.00057093 0.00013 0.00359964 2e-05 
-0.000548065 0.000110002 0.00365165 4e-05 
-0.000502441 0.000120001 0.00359943 3e-05 
-0.00046471 0.000100001 0.00368408 5e-05 
-0.000449025 2.74766e-05 0.00360288 6e-05 
-0.000341283 2.54758e-05 0.0035808 5e-05 
-0.000442474 0.000120001 0.00360151 3e-05 
-0.000374455 0.000100003 0.00363864 5e-05 
-0.000283698 0.000120001 0.00360513 3e-05 
-0.000311573 0.000130001 0.00364541 2e-05 
-0.000393179 0.000120001 0.0037138 3e-05 
-0.000339748 4.66493e-05 0.00371576 5e-05 
-0.000305902 5.91475e-05 0.0036442 3e-05 
-0.000316227 0.000120002 0.00369418 3e-05 
-0.000434554 -2.67869e-05 0.00372012 7e-05 
-0.000284513 -1.76448e-05 0.00365092 5e-05 
-0.000127327 -4.05745e-05 0.00366239 5e-05 
-0.000265518 -3.32116e-05 0.00355225 5e-05 
-0.000257619 5.60691e-05 0.00359361 4e-05 
-0.000205284 -1.798e-06 0.00361128 4e-05 
-0.00020295 1.29424e-05 0.00370003 5e-05 
-0.000207499 0.000110002 0.00356232 4e-05 
-0.000242421 0.000100003 0.00367067 5e-05 
-0.000150421 0.000100002 0.00363148 5e-05 
-0.000102863 4.49249e-05 0.00369194 4e-05 
6.70052e-05 0.000110001 0.00354536 4e-05 
4.3333e-05 -2.15045e-05 0.00366037 4e-05 
-4.83318e-05 -3.54661e-05 0.0037235 5e-05 
-6.2775e-05 1.96512e-05 0.00361543 5e-05 
-6.6591e-05 0.000110001 0.00366267 4e-05 
2.32805e-05 5.67688e-06 0.00354836 6e-05 
-6.31101e-06 0.000100003 0.00359659 5e-05 
6.09944e-05 5.0185e-05 0.00362957 4e-05 
6.50726e-05 0.000120003 0.00362666 3e-05 
2.53596e-05 0.000120002 0.00367163 3e-05 
-3.75659e-06 4.83437e-05 0.00369205 5e-05 
0.000137648 3.13175e-06 0.00363272 5e-05 
0.000120631 2.85362e-05 0.00354808 4e-05 
0.000137804 0.000100002 0.00360001 5e-05 
0.000209718 0.000120001 0.00356433 3e-05 
0.000198933 5.14383e-05 0.00355524 4e-05 
0.000237977 9.00017e-05 0.00364434 6e-05 
0.000111084 9.0002e-05 0.00370642 6e-05 
0.000193584 1.76765e-05 0.00371433 5e-05 
0.000108879 -3.51098e-05 0.00372053 5e-05 
0.000199874 0.000120001 0.00372124 3e-05 
0.000306192 6.61143e-07 0.003694 4e-05 
0.00043628 -1.10844e-05 0.00363971 5e-05 
0.000386078 2.9645e-05 0.00354944 5e-05 
0.000299897 8.11906e-06 0.00360453 5e-05 
0.000372153 5.19233e-05 0.00363551 4e-05 
0.000407246 0.000110001 0.0035931 4e-05 
0.000317883 0.000100002 0.00356941 5e-05 
0.000331723 0.000110002 0.00367282 4e-05 
0.000380199 0.000120002 0.00372232 3e-05 
0.000453471 9.00026e-05 0.00367953 6e-05 
0.000597538 -4.00613e-05 0.00359989 4e-05 
0.000503742 5.71998e-06 0.00369874 4e-05 
0.000467661 6.32107e-05 0.00356725 4e-05 
0.000553877 0.000100002 0.00356048 5e-05 
0.000582378 -3.70916e-05 0.00368961 5e-05 
0.000530208 1.80625e-05 0.00361361 5e-05 
0.000488704 0.000120003 0.00360234 3e-05 
0.000561537 0.000100003 0.00366161 5e-05 
0.000626545 4.45772e-05 0.00360963 5e-05 
0.000606418 3.91891e-05 0.00368782 3e-05 
0.000769614 3.00342e-06 0.00362557 3e-05 
0.000665255 -5.98724e-06 0.00367337 4e-05 
0.000800783 5.17923e-05 0.00366491 4e-05 
0.000658378 0.000100003 0.00368654 5e-05 
0.000687883 0.000110003 0.0036021 4e-05 
0.000747357 0.000110002 0.00367745 4e-05 
0.000720019 5.87358e-05 0.00371649 3e-05 
0.000716494 4.60175e-05 0.00364067 4e-05 
0.000776835 0.000100001 0.00359277 5e-05 
0.000755418 -1.25589e-05 0.00370851 5e-05 
0.000816069 0.000120002 0.00366859 3e-05 
0.00096 -2.56603e-06 0.00362134 4e-05 
0.000879378 4.10793e-05 0.00365452 4e-05 
0.000957875 5.10619e-05 0.00356202 4e-05 
0.00097 0.000120001 0.00356243 3e-05 
0.000881774 0.000110001 0.00369517 4e-05 
0.000834312 1.81809e-05 0.00358006 5e-05 
0.000950003 0.000100001 0.00363733 5e-05 
0.000862803 0.000110002 0.00361745 4e-05 
0.000960002 0.000110002 0.00372621 4e-05 
0.000950001 2.26124e-05 0.00370717 5e-05 
-0.000874341 -4.84922e-05 0.00382948 4e-05 
-0.000672394 -4.54763e-05 0.00387588 5e-05 
0.000256067 -4.20318e-05 0.00373944 4e-05 
0.000556504 -5.28396e-05 0.00390751 4e-05 
0.000693977 -4.80635e-05 0.00381298 7e-05 
-0.000950001 -1.84008e-05 0.00386782 5e-05 
-0.000909638 -9.90807e-06 0.00376894 4e-05 
-0.000909786 4.59038e-05 0.00381118 3e-05 
-0.000970001 3.89728e-05 0.00381578 3e-05 
-0.000949986 0.000100002 0.00376809 5e-05 
-0.000837516 3.25437e-05 0.00384278 5e-05 
-0.000872211 0.000110005 0.00381285 4e-05 
-0.000940002 9.00023e-05 0.00388359 6e-05 
-0.000850459 5.38824e-05 0.00374595 5e-05 
-0.000803684 -3.44741e-05 0.00374371 5e-05 
-0.000746851 2.41625e-05 0.00380143 5e-05 
-0.00079384 0.000110002 0.00382891 4e-05 
-0.000780102 0.000110001 0.00374525 4e-05 
-0.000720022 0.000110002 0.00379808 4e-05 
-0.000682147 0.000100002 0.0038791 5e-05 
-0.000758997 0.000120001 0.00388879 3e-05 
-0.000651612 0.000120001 0.00378713 3e-05 
-0.000637516 1.19714e-05 0.0037888 6e-05 
-0.000614642 3.0856e-05 0.00390483 5e-05 
-0.000593144 0.000100002 0.00373632 5e-05 
-0.000485286 7.01139e-05 0.00375538 3e-05 
-0.000515909 0.000120001 0.00374221 3e-05 
-0.000511598 2.50063e-05 0.0038294 6e-05 
-0.000518021 0.000120001 0.00381245 3e-05 
-0.000591768 0.000100003 0.00383631 5e-05 
-0.00051487 0.000110002 0.00388198 4e-05 
-0.000465952 0.000120001 0.00378253 3e-05 
-0.00035199 2.00805e-06 0.0038044 5e-05 
-0.000423635 5.51905e-05 0.00379264 4e-05 
-0.000406845 0.000120002 0.00377222 3e-05 
-0.000411831 3.13776e-05 0.00387894 5e-05 
-0.000442567 0.000110003 0.00384775 4e-05 
-0.00035496 0.000100001 0.00382973 5e-05 
-0.000347452 0.000120001 0.00375264 3e-05 
-0.000287104 2.77569e-05 0.00388941 6e-05 
-0.000278173 0.000110001 0.00375266 4e-05 
-0.000287055 0.000120001 0.00390262 3e-05 
-0.000277108 -3.46508e-05 0.00374919 5e-05 
-0.000162507 0.000100001 0.00373078 5e-05 
-0.00012948 3.33844e-06 0.00376719 5e-05 
-0.000173885 -8.92105e-06 0.00387405 6e-05 
-0.000228311 4.10833e-05 0.00379258 5e-05 
-0.000106466 7.01426e-05 0.00383795 5e-05 
-0.00026579 0.000110003 0.00383668 4e-05 
-0.000217229 0.000120002 0.0037856 3e-05 
-0.000186559 0.000110002 0.00384773 4e-05 
-0.000227071 0.000120001 0.00390393 3e-05 
-4.43199e-05 -2.06129e-05 0.00383895 6e-05 
-2.92513e-05 2.96701e-05 0.00376584 3e-05 
-7.25049e-05 0.000120002 0.00389049 3e-05 
5.03173e-05 2.63114e-05 0.00377342 5e-05 
1.21192e-06 9.00029e-05 0.00384847 6e-05 
2.46365e-05 0.000110002 0.00375254 4e-05 
-6.48037e-05 0.000100003 0.00375209 5e-05 
6.26323e-05 2.54301e-05 0.00386102 3e-05 
8.74885e-05 0.000110002 0.00380203 4e-05 
9.78155e-05 -3.99785e-05 0.0038313 5e-05 
0.000145816 4.1536e-05 0.00379888 5e-05 
0.000214167 4.46469e-05 0.00381365 2e-05 
0.000264606 4.79337e-05 0.00386059 3e-05 
0.00017101 0.000120001 0.00377406 3e-05 
0.000204103 0.000100003 0.0038553 5e-05 
0.00024499 2.10406e-05 0.00382328 2e-05 
0.000184812 -5.82472e-07 0.00389542 6e-05 
0.000106764 9.0003e-05 0.00390555 6e-05 
0.000383368 2.47003e-05 0.00373357 5e-05 
0.000386771 -3.59755e-05 0.00386058 4e-05 
0.000279875 0.000120001 0.00387138 3e-05 
0.000325161 -2.81075e-05 0.0037954 5e-05 
0.000283727 -7.83374e-06 0.00387174 3e-05 
0.000344454 4.34293e-05 0.00386256 5e-05 
0.000282009 8.00029e-05 0.00376625 7e-05 
0.000332569 0.000120003 0.00384269 3e-05 
0.000395945 0.000100003 0.00379816 5e-05 
0.000400943 0.000110001 0.00388746 4e-05 
0.000434535 4.39146e-05 0.00385702 4e-05 
0.000616215 -3.11632e-05 0.00387783 3e-05 
0.00045516 -3.60401e-05 0.00381908 4e-05 
0.000456902 -3.75283e-05 0.00389904 4e-05 
0.000571784 3.34411e-05 0.00375971 5e-05 
0.000595189 0.000120001 0.00373137 3e-05 
0.000473371 4.07762e-05 0.00377586 5e-05 
0.000519502 1.44607e-05 0.00386059 5e-05 
0.000472586 0.000120002 0.00378692 3e-05 
0.000597496 0.000120001 0.00381982 3e-05 
0.000537716 0.000120001 0.0038146 3e-05 
0.000479602 0.000110001 0.00385585 4e-05 
0.0005271 0.000110002 0.00374417 4e-05 
0.000562469 0.000100002 0.00388951 5e-05 
0.000599022 2.23777e-05 0.00385691 3e-05 
0.000574546 -1.39479e-06 0.00382036 2e-05 
0.000636898 0.000120001 0.0037745 3e-05 
0.000637427 6.2283e-05 0.0038141 4e-05 
0.000790768 -1.50424e-05 0.00378023 3e-05 
0.000739253 2.0851e-05 0.00386955 3e-05 
0.000660398 3.09221e-05 0.00374418 4e-05 
0.000764672 3.8875e-05 0.00377679 3e-05 
0.000713679 0.000100002 0.00378473 5e-05 
0.000740352 0.000100003 0.00388111 5e-05 
0.000651011 0.000110002 0.00387686 4e-05 
0.000791423 0.000120001 0.00382285 3e-05 
0.000671985 3.31796e-05 0.00388448 4e-05 
0.00080559 0.000100001 0.00374534 5e-05 
0.000810546 0.00013 0.00387395 2e-05 
0.000902298 -1.51665e-05 0.00387577 4e-05 
0.000868835 -2.13379e-05 0.00376393 5e-05 
0.000950002 1.80461e-05 0.00380706 5e-05 
0.00086776 5.16691e-05 0.00373123 3e-05 
0.000823893 3.84838e-05 0.00384456 6e-05 
0.000970001 0.000120001 0.00381071 3e-05 
0.000858654 0.000120002 0.00386025 3e-05 
0.000895801 0.000100002 0.00378848 5e-05 
0.000938328 9.00023e-05 0.00388943 6e-05 
-0.000463008 -6.11872e-05 0.00399508 4e-05 
-0.000399456 -4.31676e-05 0.00392783 4e-05 
-0.000385097 -5.68317e-05 0.00403993 5e-05 
-0.00014446 -6.43696e-05 0.00395189 4e-05 
-0.000197403 -4.39145e-05 0.00402174 5e-05 
-3.93895e-05 -4.55535e-05 0.00402622 4e-05 
0.000256975 -5.9892e-05 0.00395352 5e-05 
0.00043329 -5.58761e-05 0.00399304 5e-05 
0.000509466 -4.98795e-05 0.00401673 3e-05 
0.000573329 -5.04669e-05 0.00398568 4e-05 
0.00067361 -4.70896e-05 0.00393123 5e-05 
-0.000862259 -2.38235e-05 0.00393394 6e-05 
-0.000832194 0.000100001 0.00391641 5e-05 
-0.000960001 -2.08329e-05 0.00400775 4e-05 
-0.000960005 5.15595e-05 0.0039737 4e-05 
-0.000901051 0.000110001 0.00397349 4e-05 
-0.00096 3.61281e-05 0.00408019 4e-05 
-0.000970002 0.000120002 0.00396296 3e-05 
-0.000956714 0.000110001 0.00403095 4e-05 
-0.000888894 0.000110001 0.00407338 4e-05 
-0.000888927 3.15655e-05 0.00402515 5e-05 
-0.000848522 6.56221e-05 0.00407271 2e-05 
-0.000808663 3.1385e-05 0.00398062 3e-05 
-0.000752157 2.14942e-05 0.00391127 6e-05 
-0.000682665 -1.71771e-05 0.00399387 5e-05 
-0.000745842 4.52985e-05 0.00400819 4e-05 
-0.000799975 3.20795e-05 0.00406011 3e-05 
-0.000752908 0.000110003 0.0039578 4e-05 
-0.000816136 0.000100005 0.00402106 5e-05 
-0.000723746 0.000110001 0.00406308 4e-05 
-0.000753003 0.00013 0.00401464 2e-05 
-0.000659138 9.00022e-05 0.0039862 6e-05 
-0.000675289 5.84693e-05 0.00406893 3e-05 
-0.000734848 2.53236e-05 0.00408487 4e-05 
-0.000465585 -3.99532e-05 0.00407652 4e-05 
-0.00054553 -4.1545e-05 0.00407901 4e-05 
-0.00046847 -4.30931e-06 0.00393909 4e-05 
-0.000508506 1.3067e-05 0.0040178 5e-05 
-0.000552354 -1.92593e-05 0.00394616 4e-05 
-0.000607552 1.70288e-05 0.00405034 5e-05 
-0.000513208 0.000120001 0.00396252 3e-05 
-0.000579425 0.000110002 0.00392923 4e-05 
-0.000557189 0.000100002 0.00402628 5e-05 
-0.000629099 0.000110002 0.00407946 4e-05 
-0.000583382 4.21801e-05 0.00397759 3e-05 
-0.000522538 5.46516e-05 0.00393923 4e-05 
-0.00045767 0.000100002 0.00401651 5e-05 
-0.000328919 -2.69664e-05 0.00396191 4e-05 
-0.000449072 0.000110001 0.00392748 4e-05 
-0.000449237 2.77454e-05 0.00406949 3e-05 
-0.000310624 4.66643e-05 0.0039742 3e-05 
-0.000397326 2.63935e-05 0.00398585 5e-05 
-0.000359655 0.000100002 0.00392962 5e-05 
-0.000337894 0.000100002 0.00402722 5e-05 
-0.000402131 0.000120002 0.0040705 3e-05 
-0.000400985 6.13971e-05 0.0040577 3e-05 
-0.00029297 2.33367e-06 0.00405051 6e-05 
-9.62697e-05 -1.74031e-05 0.00391881 3e-05 
-0.000216886 1.86284e-05 0.00396002 4e-05 
-0.000251095 0.000100002 0.00397757 5e-05 
-0.000148701 9.00021e-05 0.00393809 6e-05 
-0.000257231 0.000100003 0.00408632 5e-05 
-0.000184044 5.41703e-05 0.0040359 5e-05 
-0.000123606 4.87246e-05 0.00408862 3e-05 
-0.000147334 -7.02538e-06 0.00407206 3e-05 
-0.00010707 5.39066e-06 0.00399473 5e-05 
-9.51837e-05 0.000100002 0.00403419 5e-05 
-9.22784e-05 -3.07471e-05 0.00406962 3e-05 
-6.35407e-05 4.41674e-05 0.00391266 4e-05 
2.82057e-05 -3.36536e-06 0.00395038 7e-05 
-4.21558e-05 5.21435e-05 0.00399474 3e-05 
2.04041e-05 0.000120001 0.00393318 3e-05 
-5.45501e-05 2.82117e-05 0.00407017 4e-05 
-5.10891e-05 0.000110002 0.00395637 4e-05 
1.99127e-05 0.000100003 0.00401076 5e-05 
-2.79155e-05 0.000120002 0.00407259 3e-05 
2.10689e-05 -5.61902e-06 0.00406013 4e-05 
0.000132469 -2.67314e-05 0.00397652 4e-05 
0.000133775 -1.89304e-05 0.00406201 3e-05 
0.000204358 0.000100002 0.0039553 5e-05 
9.22979e-05 4.93341e-05 0.00405759 5e-05 
0.000127639 0.000110001 0.00400128 4e-05 
0.000219743 0.000110002 0.00404387 4e-05 
0.000184297 2.97932e-05 0.00402362 5e-05 
0.000210514 -3.67409e-05 0.00407826 4e-05 
0.000152092 0.000110001 0.00408668 4e-05 
0.000339711 -2.93041e-05 0.00397138 4e-05 
0.000279571 3.6328e-05 0.00393832 5e-05 
0.000287015 0.000110002 0.00398947 4e-05 
0.00040506 2.38214e-05 0.00393964 5e-05 
0.000328288 0.000110001 0.00392094 4e-05 
0.000308659 9.0002e-05 0.00408503 6e-05 
0.000376089 0.000100003 0.00399758 5e-05 
0.000406636 0.000110002 0.00408505 4e-05 
0.000377582 1.07379e-05 0.00404263 5e-05 
0.000278942 -1.46964e-06 0.00403164 5e-05 
0.000441873 4.33374e-05 0.00400793 3e-05 
0.000478607 3.04943e-05 0.00403933 2e-05 
0.000599949 2.03054e-05 0.00393687 5e-05 
0.000469639 0.000100002 0.00394473 5e-05 
0.000569843 0.000100002 0.00398924 5e-05 
0.000485797 0.000100004 0.00404342 5e-05 
0.000554899 1.57306e-05 0.00405834 6e-05 
0.00050382 7.4931e-06 0.00396126 5e-05 
0.000634869 0.000110002 0.00405912 4e-05 
0.000707633 -3.72554e-05 0.00403646 5e-05 
0.000744488 1.26793e-05 0.00406883 2e-05 
0.000811979 2.31402e-05 0.00405349 5e-05 
0.000765096 9.18441e-06 0.00395497 6e-05 
0.000657425 4.47141e-06 0.00399022 3e-05 
0.000653427 3.23352e-05 0.00405431 4e-05 
0.000677871 9.00024e-05 0.00397108 6e-05 
0.000762011 0.000120001 0.00398205 3e-05 
0.000729843 9.00034e-05 0.0040832 6e-05 
0.00081208 0.000110001 0.00402993 4e-05 
0.000824105 0.000100003 0.00393574 5e-05 
0.000899812 1.02356e-05 0.00406827 4e-05 
0.000970003 3.62765e-05 0.00395432 3e-05 
0.000884092 1.42424e-05 0.0039696 6e-05 
0.000950002 0.000100002 0.00399835 5e-05 
0.000872574 0.000120001 0.00399616 3e-05 
0.00097 0.000120001 0.0040813 3e-05 
0.000888172 0.000100002 0.00407694 5e-05 
0.00097 6.20207e-05 0.00406586 3e-05 
-0.000868056 -4.63002e-05 0.00408433 5e-05 
-0.000665158 -5.11098e-05 0.00428728 6e-05 
-0.000499345 -6.72025e-05 0.00415538 5e-05 
-0.000313944 -5.47435e-05 0.00414217 5e-05 
-0.000129937 -5.04376e-05 0.00414895 6e-05 
-0.000228808 -4.16637e-05 0.00411334 4e-05 
-4.39e-05 -4.56681e-05 0.00426779 5e-05 
0.000395315 -5.20518e-05 0.00411841 5e-05 
0.000493801 -6.39874e-05 0.00410319 5e-05 
0.000509516 -5.15857e-05 0.00422909 5e-05 
0.000653609 -8.15463e-05 0.00419639 6e-05 
0.00096 -5.75481e-05 0.00414665 4e-05 
-0.00096 -3.16607e-05 0.00412267 4e-05 
-0.000850887 7.95805e-06 0.0041941 5e-05 
-0.000880978 3.74827e-05 0.00411459 4e-05 
-0.000959807 0.000110001 0.00411089 4e-05 
-0.000891991 0.000110001 0.00415332 4e-05 
-0.000950004 4.28908e-05 0.00417208 5e-05 
-0.000970002 0.000120002 0.00417941 3e-05 
-0.000949712 0.000100002 0.00425417 5e-05 
-0.000851917 0.000100002 0.00423329 5e-05 
-0.000795585 -9.82569e-06 0.00412328 4e-05 
-0.000675677 2.47506e-05 0.00412227 3e-05 
-0.000717413 -2.78532e-05 0.00414204 4e-05 
-0.00076145 1.89826e-05 0.00418965 4e-05 
-0.000803178 6.00232e-05 0.00420286 2e-05 
-0.000751857 0.000100001 0.0042287 5e-05 
-0.000672556 1.99871e-05 0.00420368 5e-05 
-0.000797097 9.0002e-05 0.00412893 6e-05 
-0.00068889 0.000100005 0.00414598 5e-05 
-0.000657474 0.000100001 0.00426173 5e-05 
-0.000585672 -2.13083e-05 0.00417637 5e-05 
-0.000496035 1.25715e-05 0.00416037 3e-05 
-0.000535213 3.46829e-05 0.00410098 4e-05 
-0.000612398 5.27637e-05 0.00413279 4e-05 
-0.000593949 5.2984e-05 0.00422702 3e-05 
-0.000557789 0.000110002 0.00411572 4e-05 
-0.000606341 0.000110003 0.00418835 4e-05 
-0.000502956 0.000110002 0.00422118 4e-05 
-0.000568215 0.000110001 0.00426745 4e-05 
-0.000545636 5.92943e-05 0.00417639 4e-05 
-0.000525137 2.56187e-05 0.00425729 5e-05 
-0.000458644 9.00024e-05 0.0041338 6e-05 
-0.000428585 -7.65099e-06 0.00421642 6e-05 
-0.000387007 8.24574e-06 0.00411583 5e-05 
-0.000347844 4.92899e-05 0.00420097 4e-05 
-0.000414442 0.000100003 0.00423403 5e-05 
-0.000348749 0.000100003 0.00412663 5e-05 
-0.000387711 0.00013 0.00417646 2e-05 
-0.000321248 0.000120001 0.00419932 3e-05 
-0.000331838 -7.27943e-06 0.00426911 5e-05 
-0.00028339 4.71114e-05 0.00423279 3e-05 
-0.000297478 8.15143e-07 0.00419732 3e-05 
-0.000277576 5.97043e-05 0.00416418 4e-05 
-0.000231406 -2.19889e-05 0.00419354 4e-05 
-0.000227464 4.59877e-05 0.00421109 3e-05 
-0.000194433 3.79295e-05 0.00413748 5e-05 
-0.000253722 0.000110002 0.0042217 4e-05 
-0.000227161 0.000120001 0.00415771 3e-05 
-0.000161658 0.000110001 0.00418028 4e-05 
-0.000155331 0.000110003 0.00410039 4e-05 
-0.000182223 0.000110001 0.00425759 4e-05 
-0.000158966 1.20627e-05 0.00423469 5e-05 
-0.000104444 0.000110002 0.00423887 4e-05 
-5.52024e-05 1.08542e-06 0.0041909 4e-05 
-7.61792e-05 3.78581e-05 0.00425878 4e-05 
1.26931e-05 3.67509e-05 0.00416814 4e-05 
1.47559e-05 0.000120001 0.00415896 3e-05 
-6.93641e-05 9.00021e-05 0.00414739 6e-05 
7.28838e-05 0.000110002 0.00412116 4e-05 
6.62429e-05 0.000120001 0.00419013 3e-05 
8.93003e-06 9.00031e-05 0.0042527 6e-05 
1.16888e-05 6.63304e-05 0.00409382 4e-05 
4.87622e-05 -1.24971e-05 0.00425009 5e-05 
8.58577e-05 5.03976e-05 0.00419748 4e-05 
7.38849e-05 8.73204e-07 0.00413115 4e-05 
0.00021159 -1.65139e-05 0.00418853 4e-05 
0.000135661 -1.65982e-05 0.00422703 4e-05 
0.000161086 2.22485e-05 0.00412492 5e-05 
0.000174231 5.11628e-05 0.00420913 4e-05 
0.000133475 0.000110002 0.0041734 4e-05 
0.000219379 0.000100003 0.0041485 5e-05 
0.000121686 0.000100002 0.00426347 5e-05 
0.000263208 4.89397e-05 0.00422246 5e-05 
0.000251024 1.89699e-05 0.00412543 4e-05 
0.000278232 -3.50861e-05 0.00425099 4e-05 
0.000398482 -2.82424e-05 0.0042392 5e-05 
0.000442774 -6.46603e-06 0.00417624 3e-05 
0.000318481 -1.76785e-05 0.0041724 5e-05 
0.000386203 8.00031e-05 0.00418888 7e-05 
0.000296232 0.000120001 0.00420636 3e-05 
0.000284055 0.00013 0.00414981 2e-05 
0.000397617 0.00013 0.00426862 2e-05 
0.000454026 2.77463e-05 0.00410481 5e-05 
0.000561512 0.000110002 0.00409103 4e-05 
0.000590031 -4.42143e-06 0.00419942 4e-05 
0.000522042 1.80109e-06 0.00415773 4e-05 
0.000480934 3.32108e-05 0.00421948 4e-05 
0.000476354 0.000110001 0.00424432 4e-05 
0.000488074 0.00013 0.00418898 2e-05 
0.000476484 0.000110002 0.00413361 4e-05 
0.000557357 9.00027e-05 0.00418892 6e-05 
0.000623601 3.459e-05 0.00412851 4e-05 
0.00063758 -3.57909e-05 0.00409314 4e-05 
0.000737198 -1.30527e-05 0.00414423 6e-05 
0.000648123 5.04628e-05 0.00420298 4e-05 
0.00064858 0.000110002 0.00413793 4e-05 
0.000655089 0.000120002 0.00420691 3e-05 
0.000689216 6.70638e-05 0.00414818 2e-05 
0.000739932 9.00037e-05 0.00420564 6e-05 
0.000766109 -4.02055e-06 0.00425638 5e-05 
0.000806915 0.00013 0.00417696 2e-05 
0.000812998 6.03791e-05 0.00424904 3e-05 
0.000817864 0.000120001 0.0042412 3e-05 
0.000814142 0.000120001 0.00409991 3e-05 
0.000851047 -2.51166e-05 0.00410394 3e-05 
0.000843958 3.23842e-06 0.00423944 3e-05 
0.000841165 4.48407e-05 0.00415969 6e-05 
0.000960003 1.80152e-05 0.00412038 4e-05 
0.000940002 9.60466e-06 0.004218 6e-05 
0.00088729 0.000110002 0.0042199 4e-05 
0.00095 0.000100002 0.00415613 5e-05 
0.000960001 0.000110001 0.00425327 4e-05 
0.000871923 5.3098e-05 0.00425766 3e-05 
-0.000928866 -4.53576e-05 0.004432 5e-05 
-0.000502974 -7.25853e-05 0.00440353 4e-05 
-0.000473068 -7.09861e-05 0.00430812 6e-05 
-0.000415532 -6.07791e-05 0.00443502 5e-05 
0.000230479 -7.92875e-05 0.00431317 5e-05 
0.000851519 -4.46192e-05 0.0043031 5e-05 
0.000888327 -6.17662e-05 0.0044148 5e-05 
0.000950001 -5.28464e-05 0.00431838 5e-05 
-0.00096 1.25558e-05 0.00427279 4e-05 
-0.000872147 -2.56499e-05 0.00427487 4e-05 
-0.00098 -2.24564e-05 0.00431723 2e-05 
-0.000861018 9.08029e-06 0.0043606 4e-05 
-0.00088935 4.91581e-05 0.00429742 4e-05 
-0.00095 2.25322e-05 0.00436168 5e-05 
-0.000950003 0.000100002 0.00443189 5e-05 
-0.000960001 0.000110003 0.00434301 4e-05 
-0.000871793 0.000100001 0.00436958 5e-05 
-0.000874475 0.000120001 0.00444907 3e-05 
-0.000970002 2.28816e-05 0.00443913 3e-05 
-0.00087397 3.68523e-05 0.00444709 5e-05 
-0.000785391 -2.40589e-05 0.00444415 5e-05 
-0.000749438 -2.03265e-05 0.00435091 5e-05 
-0.000801567 4.98934e-05 0.00439523 4e-05 
-0.000718174 5.24444e-05 0.00430815 4e-05 
-0.000798674 2.6265e-05 0.0042774 5e-05 
-0.000805383 0.000110005 0.00430967 4e-05 
-0.00075447 0.000110001 0.00437138 4e-05 
-0.000715219 0.000110004 0.00444109 4e-05 
-0.000736148 0.000120001 0.00430456 3e-05 
-0.000707124 4.84539e-05 0.00439064 4e-05 
-0.000754509 6.64158e-05 0.00442859 2e-05 
-0.000677699 0.000110002 0.00434886 4e-05 
-0.000671339 -1.82396e-05 0.00443933 5e-05 
-0.000638733 7.22679e-05 0.00432321 2e-05 
-0.000584562 -2.41251e-05 0.00437199 6e-05 
-0.000634213 5.87083e-05 0.00437113 3e-05 
-0.000607951 3.1249e-05 0.00429207 4e-05 
-0.000604738 4.2112e-05 0.00444413 4e-05 
-0.000481668 0.000100004 0.00430805 5e-05 
-0.00059621 0.000110001 0.00434239 4e-05 
-0.00052431 9.00025e-05 0.00440896 6e-05 
-0.000638455 0.000110003 0.00441857 4e-05 
-0.000499062 1.89881e-05 0.00434317 4e-05 
-0.000477925 1.91899e-06 0.00441841 4e-05 
-0.000444429 0.00013 0.00436203 2e-05 
-0.000291843 -1.34944e-06 0.00434952 4e-05 
-0.000324099 0.000100002 0.0042769 5e-05 
-0.000399782 1.26058e-05 0.0043533 6e-05 
-0.000395246 0.000110002 0.0043311 4e-05 
-0.000415166 0.000100002 0.0044183 5e-05 
-0.000310616 9.00023e-05 0.00438561 6e-05 
-0.000316658 -1.375e-05 0.00444559 6e-05 
-0.000235384 -2.84437e-05 0.00428488 5e-05 
-0.000117034 -5.1813e-06 0.00431243 4e-05 
-0.000213397 1.42973e-05 0.00439076 5e-05 
-0.000185946 2.62707e-05 0.0043159 3e-05 
-0.000127065 4.73268e-05 0.00435762 3e-05 
-0.000239435 6.14626e-05 0.00428535 4e-05 
-0.000258444 0.000120002 0.00431869 3e-05 
-0.000216808 0.000100003 0.00444217 5e-05 
-0.000186318 0.000100003 0.00434693 5e-05 
-0.000114364 0.000100003 0.00441647 5e-05 
-0.000139654 5.91091e-05 0.00429644 3e-05 
-8.14871e-05 3.285e-05 0.00434302 2e-05 
4.40417e-05 -1.55768e-05 0.00437528 5e-05 
-6.23965e-05 3.0694e-06 0.00441478 6e-05 
-2.64812e-05 2.5344e-05 0.00432026 4e-05 
1.45984e-05 9.00021e-05 0.00438454 6e-05 
-7.66101e-05 0.000100003 0.00432387 5e-05 
6.50649e-05 0.000120001 0.00431633 3e-05 
7.27241e-05 4.49139e-05 0.00431512 4e-05 
9.76811e-05 0.000120002 0.00436731 3e-05 
0.000227822 0.000110001 0.00428071 4e-05 
0.000248702 -1.87209e-05 0.00439062 5e-05 
0.000187356 2.14631e-05 0.00430371 6e-05 
0.000162567 0.000110002 0.00434303 4e-05 
0.000255111 9.00025e-05 0.0043752 6e-05 
0.000183777 0.000110001 0.00444237 4e-05 
0.000120189 4.71643e-05 0.00439156 5e-05 
0.000116847 0.000120001 0.00442447 3e-05 
0.00016096 -3.22334e-05 0.00443665 5e-05 
0.000217092 3.80364e-05 0.00445291 4e-05 
0.000335821 -1.75977e-06 0.00432564 6e-05 
0.000389048 5.9488e-05 0.00428671 3e-05 
0.000319828 2.81212e-05 0.00441972 4e-05 
0.000320043 0.000100003 0.00428698 5e-05 
0.000406605 5.07194e-05 0.00437292 4e-05 
0.00035296 0.000110002 0.00437014 4e-05 
0.000422628 0.000110002 0.00432165 4e-05 
0.000430726 -1.20777e-05 0.00439228 3e-05 
0.000564104 5.25885e-07 0.00445133 4e-05 
0.000562079 -2.12748e-05 0.00435425 4e-05 
0.000554166 2.40493e-05 0.0042769 5e-05 
0.000456735 1.93989e-05 0.00430506 5e-05 
0.0004995 2.86739e-05 0.00439534 5e-05 
0.000461246 0.000110002 0.00440006 4e-05 
0.000511945 0.000100003 0.00432637 5e-05 
0.000551457 0.000110002 0.00440661 4e-05 
0.000609122 5.46583e-05 0.00436524 5e-05 
0.000591518 6.43501e-05 0.00444268 3e-05 
0.000622345 0.000100002 0.0042771 5e-05 
0.000639026 -8.59923e-06 0.00440403 3e-05 
0.000775182 -1.99216e-05 0.00434449 4e-05 
0.000710111 0.00013 0.00428639 2e-05 
0.00066038 -2.821e-06 0.00428671 6e-05 
0.000699057 7.87321e-05 0.00428503 3e-05 
0.000777926 -6.91739e-06 0.00442693 4e-05 
0.000680593 0.000110001 0.0043452 4e-05 
0.000794143 9.00024e-05 0.00444546 6e-05 
0.000778115 9.00022e-05 0.00432653 6e-05 
0.000740013 0.00013 0.00440001 2e-05 
0.000707505 2.62471e-05 0.00438175 5e-05 
0.000665286 0.000100003 0.00443445 5e-05 
0.000847664 2.17594e-05 0.00437779 5e-05 
0.000871975 0.000110002 0.00429842 4e-05 
0.000908161 2.65222e-05 0.00431133 4e-05 
0.000950001 1.38405e-05 0.0043929 5e-05 
0.00086534 0.000110003 0.00437815 4e-05 
0.000918646 0.000130002 0.00439707 2e-05 
0.000950001 0.000100003 0.00434215 5e-05 
0.000960001 0.000110002 0.00443567 4e-05 
0.000891055 0.000120002 0.00444248 3e-05 
0.000891697 5.05068e-05 0.00445083 4e-05 
-0.000504843 -4.36766e-05 0.00447838 4e-05 
-0.00056322 -4.44304e-05 0.00454688 5e-05 
-0.000352836 -5.67445e-05 0.00454775 5e-05 
-0.000266014 -4.40228e-05 0.00452775 4e-05 
-0.000188496 -6.10664e-05 0.00446692 6e-05 
-0.000242108 -5.06069e-05 0.00462668 4e-05 
-9.174e-05 -4.76259e-05 0.00460758 5e-05 
-3.76406e-05 -5.94957e-05 0.00452432 5e-05 
0.000711124 -4.63328e-05 0.00449004 6e-05 
0.000778296 -5.65852e-05 0.00459005 6e-05 
0.000960001 -9.01575e-05 0.00446124 4e-05 
0.000882917 -7.96922e-05 0.00456515 5e-05 
-0.000870615 2.20414e-06 0.0046049 2e-05 
-0.000918341 -1.6505e-05 0.00457372 4e-05 
-0.000950004 4.28787e-05 0.00451396 5e-05 
-0.000898272 6.00221e-05 0.00458558 4e-05 
-0.000970001 0.000120002 0.00450672 3e-05 
-0.00091056 0.000120001 0.00449855 3e-05 
-0.000855225 0.000110001 0.00454024 4e-05 
-0.000960002 0.00011 0.00457527 4e-05 
-0.000847736 0.000120001 0.00461473 3e-05 
-0.00098 6.98716e-05 0.00461514 2e-05 
-0.000952891 0.000104634 0.0046346 2e-05 
-0.00097 2.78536e-05 0.00458995 3e-05 
-0.000907477 0.000120008 0.00462044 3e-05 
-0.000822992 1.13608e-05 0.00454127 6e-05 
-0.000711259 -3.46102e-05 0.00459087 7e-05 
-0.000723932 4.19956e-05 0.00449939 5e-05 
-0.000664788 0.000110001 0.00450319 4e-05 
-0.00079989 0.000100003 0.00446997 5e-05 
-0.000775756 0.000100004 0.00458611 5e-05 
-0.000738549 0.000120001 0.00451731 3e-05 
-0.000686513 0.000110002 0.00458019 4e-05 
-0.000576845 -1.94487e-05 0.00446236 3e-05 
-0.000629569 2.83487e-05 0.00452953 5e-05 
-0.00047723 0.000120001 0.00448242 3e-05 
-0.000608809 0.000110003 0.00456118 4e-05 
-0.00058708 0.000110001 0.00448419 4e-05 
-0.00052052 0.000100003 0.00454689 5e-05 
-0.000539647 3.31349e-05 0.00448977 4e-05 
-0.000572511 3.67435e-05 0.00463476 7e-05 
-0.000470549 0.000100003 0.00463351 5e-05 
-0.000470636 -2.66294e-05 0.00461207 5e-05 
-0.000429902 2.86938e-05 0.00451368 7e-05 
-0.000443322 0.000120001 0.00455338 3e-05 
-0.000394756 0.000120003 0.00449302 3e-05 
-0.000377955 0.000100003 0.00459502 5e-05 
-0.000319957 1.21569e-05 0.00462694 6e-05 
-0.000310843 9.00028e-05 0.0045056 6e-05 
-0.000288716 0.000110001 0.00460105 4e-05 
-0.000273245 2.17404e-05 0.00455062 3e-05 
-0.000197964 6.09372e-08 0.00456681 5e-05 
-0.000151397 6.55423e-05 0.00453996 2e-05 
-0.000202821 0.000130002 0.00450385 2e-05 
-0.000235917 2.57967e-05 0.00448937 4e-05 
-0.00015813 3.38826e-05 0.00445904 4e-05 
-0.000146386 0.000110001 0.00449999 4e-05 
-0.000205993 0.000100002 0.00456701 5e-05 
-0.000104726 0.000100003 0.00457913 5e-05 
-0.000106116 1.31943e-05 0.00452951 5e-05 
8.49834e-05 -2.71836e-05 0.00459657 4e-05 
3.10352e-06 -2.98681e-05 0.00463383 5e-05 
-2.37352e-05 2.13054e-05 0.00456483 4e-05 
-3.62239e-05 9.00025e-05 0.00449325 6e-05 
5.35432e-05 0.000110001 0.00454851 4e-05 
-1.58406e-05 0.000110001 0.0045891 4e-05 
6.39323e-05 0.000110004 0.00446919 4e-05 
6.02184e-05 2.83288e-06 0.00449368 7e-05 
3.07926e-05 5.77981e-05 0.00458922 3e-05 
-6.51882e-05 4.18956e-05 0.00461735 3e-05 
5.38673e-05 0.000110002 0.00463327 4e-05 
0.000148426 4.10613e-05 0.00446616 3e-05 
0.000159758 -3.71356e-05 0.00454748 5e-05 
0.000108698 0.000120001 0.00459092 3e-05 
0.000100272 5.07747e-05 0.00458442 4e-05 
0.000186044 0.000110002 0.00459563 4e-05 
0.00013806 0.000100003 0.00451924 5e-05 
0.000217646 4.42743e-05 0.0045429 5e-05 
0.000254685 -3.35275e-05 0.00461127 6e-05 
0.000264909 0.000110003 0.00458221 4e-05 
0.000168282 2.31513e-05 0.00461622 4e-05 
0.000440177 6.19504e-06 0.00445918 4e-05 
0.000348814 -3.31554e-05 0.00457752 4e-05 
0.000286056 -2.76689e-05 0.00449553 6e-05 
0.000412396 2.08658e-05 0.00454377 5e-05 
0.000275054 0.000100002 0.00448291 5e-05 
0.000385723 9.00028e-05 0.00446248 6e-05 
0.000311384 4.50303e-05 0.0045865 4e-05 
0.000331809 4.60133e-05 0.00451956 3e-05 
0.000336964 0.000110002 0.00454746 4e-05 
0.000416559 0.000110003 0.00455548 4e-05 
0.000372183 2.25336e-05 0.00461291 3e-05 
0.000366254 0.000100002 0.00463197 5e-05 
0.00051219 -3.56364e-05 0.00458226 7e-05 
0.000459225 6.49561e-05 0.00462067 5e-05 
0.0005087 8.00027e-05 0.00450342 7e-05 
0.000591954 0.000120002 0.0044651 3e-05 
0.00055259 0.000100003 0.0046133 5e-05 
0.000628172 -1.84766e-05 0.0045567 5e-05 
0.000633274 9.0003e-05 0.00453921 6e-05 
0.00071453 5.35387e-05 0.00449374 4e-05 
0.000709438 2.91938e-05 0.00459021 5e-05 
0.000639848 2.03566e-05 0.00446775 4e-05 
0.000733524 0.000120001 0.00450483 3e-05 
0.000745185 0.000110002 0.00457313 4e-05 
0.000682974 0.000110001 0.00462365 4e-05 
0.000779208 2.81147e-05 0.00453337 4e-05 
0.000834423 -3.03418e-05 0.00449295 5e-05 
0.000932768 -1.38253e-05 0.00450038 5e-05 
0.000932717 -1.89242e-05 0.00458021 3e-05 
0.000970002 4.64175e-05 0.00446317 3e-05 
0.000970002 2.65103e-05 0.00459226 3e-05 
0.000831182 0.000100003 0.00454855 5e-05 
0.000861467 1.53669e-05 0.00459235 5e-05 
0.000869485 3.77769e-05 0.00451598 3e-05 
0.000940001 9.00025e-05 0.00453598 6e-05 
-0.000830675 -1.51586e-05 0.00472636 5e-05 
-0.000518091 -5.0356e-05 0.00469683 5e-05 
-0.000395086 -4.17739e-05 0.00471806 6e-05 
0.000109858 -5.19981e-05 0.00473578 4e-05 
0.000509706 -6.48395e-05 0.00472939 6e-05 
-0.000980006 8.19309e-05 0.00465328 2e-05 
-0.000934685 2.92951e-05 0.00466193 5e-05 
-0.000980002 0.000130002 0.00464948 2e-05 
-0.00096 1.18702e-05 0.00477602 4e-05 
-0.00083346 4.4749e-05 0.00464624 5e-05 
-0.000960003 0.000110001 0.00470239 4e-05 
-0.000881955 0.000110002 0.00468484 4e-05 
-0.000950002 0.000100003 0.00479127 5e-05 
-0.000896856 4.69647e-05 0.00474165 4e-05 
-0.000894798 -1.35906e-05 0.00477671 3e-05 
-0.000852604 2.63104e-05 0.0047918 3e-05 
-0.000705706 2.11564e-05 0.00476466 3e-05 
-0.000680203 5.83001e-05 0.0046409 4e-05 
-0.000741348 5.41581e-05 0.00477652 2e-05 
-0.000674015 0.000120001 0.00467338 3e-05 
-0.000742115 1.94908e-05 0.00469345 5e-05 
-0.000806796 9.00392e-05 0.0047477 6e-05 
-0.000812106 0.000120001 0.004663 3e-05 
-0.000743239 0.000110001 0.00467057 4e-05 
-0.000697256 0.000100003 0.00474729 5e-05 
-0.000672473 5.05327e-05 0.00480507 3e-05 
-0.000654115 2.80945e-05 0.00471023 4e-05 
-0.000644471 0.000130002 0.00471245 2e-05 
-0.000591291 1.91991e-06 0.0047266 3e-05 
-0.000613908 0.000120001 0.00467158 3e-05 
-0.000534805 2.21453e-05 0.00472622 3e-05 
-0.000544856 1.01357e-05 0.00479447 4e-05 
-0.000526337 0.000120001 0.00468808 3e-05 
-0.000587835 9.0003e-05 0.00475235 6e-05 
-0.000479532 2.74233e-05 0.00467037 3e-05 
-0.000457611 8.00027e-05 0.00475255 7e-05 
-0.000624265 2.61374e-06 0.00478835 4e-05 
-0.000476688 -2.62389e-05 0.00477374 4e-05 
-0.000307954 -5.50652e-06 0.0047205 3e-05 
-0.000348893 3.78115e-05 0.0047572 4e-05 
-0.00041116 3.74611e-05 0.00465921 4e-05 
-0.000355661 0.000100003 0.0046925 5e-05 
-0.000365262 0.000110003 0.00480424 4e-05 
-0.000293054 5.02054e-05 0.00470394 3e-05 
-0.000289048 -1.58784e-05 0.00479765 5e-05 
-0.00028443 0.000100003 0.00476595 5e-05 
-0.000132512 -2.07277e-05 0.00480217 3e-05 
-0.000146835 0.000120001 0.00464415 3e-05 
-0.000207956 -9.67672e-06 0.00468633 4e-05 
-0.000188017 -2.7514e-06 0.00476349 4e-05 
-0.000246099 2.69621e-05 0.00473318 3e-05 
-0.000228899 5.15848e-05 0.00463934 4e-05 
-0.000206834 0.000120001 0.00464447 3e-05 
-0.00026738 0.000110002 0.00467815 4e-05 
-0.000182207 9.00031e-05 0.00472658 6e-05 
-0.00014114 3.19181e-05 0.00464268 5e-05 
-0.000234605 4.22413e-05 0.00479005 3e-05 
-0.000111287 2.13275e-05 0.0047425 4e-05 
1.69835e-06 -1.75627e-05 0.00473689 5e-05 
-6.1984e-05 1.14284e-05 0.00468029 4e-05 
6.97634e-05 0.000130001 0.00470784 2e-05 
-5.13332e-06 5.84095e-05 0.00464929 4e-05 
-7.90256e-05 0.000100002 0.00478066 5e-05 
-7.85197e-05 0.000100002 0.00468066 5e-05 
9.72174e-06 0.000100002 0.00472771 5e-05 
2.14148e-05 4.52927e-05 0.00479821 4e-05 
8.46964e-05 2.73619e-05 0.00468038 6e-05 
-5.88951e-05 8.06876e-06 0.00481447 5e-05 
0.000235175 6.1152e-05 0.00463815 4e-05 
0.00018284 -2.05371e-05 0.00469355 5e-05 
0.000133007 8.91889e-05 0.0046363 3e-05 
0.000167059 3.50587e-05 0.00476254 4e-05 
0.000104785 0.000100003 0.0047605 5e-05 
0.000112222 0.000120001 0.0046834 3e-05 
0.00021068 0.000100003 0.00480702 5e-05 
0.000187024 0.000100002 0.00470351 5e-05 
9.19959e-05 1.28703e-05 0.00477906 4e-05 
0.000238657 5.31198e-05 0.00469751 2e-05 
0.000265174 1.52906e-05 0.00476282 6e-05 
0.000190028 -2.29203e-05 0.00479433 3e-05 
0.000319802 2.22569e-05 0.00466273 4e-05 
0.000358255 5.69643e-05 0.00473837 4e-05 
0.000369129 0.000120002 0.00470937 3e-05 
0.000336693 0.000120001 0.00475984 3e-05 
0.000290637 0.000100003 0.00469744 5e-05 
0.000452014 9.00029e-05 0.00472753 6e-05 
0.000409956 -1.43464e-05 0.0046858 6e-05 
0.000388902 0.000100002 0.00481706 5e-05 
0.0004411 2.76889e-05 0.00480498 4e-05 
0.000603079 -2.51352e-05 0.00470007 4e-05 
0.000627603 4.25826e-05 0.0046461 5e-05 
0.000534149 1.45803e-05 0.00480146 5e-05 
0.000535561 3.24422e-05 0.00468503 5e-05 
0.000557989 0.000100002 0.00475526 5e-05 
0.000586738 0.000120001 0.00468288 3e-05 
0.000602022 3.85327e-05 0.00472914 3e-05 
0.000760922 9.60945e-06 0.0046485 3e-05 
0.000686518 -1.06849e-05 0.00465566 3e-05 
0.00065019 2.44579e-05 0.00480385 6e-05 
0.000740891 -2.44567e-05 0.00471806 5e-05 
0.000661672 1.95584e-05 0.00471472 3e-05 
0.00074526 5.41424e-05 0.00476169 4e-05 
0.000712216 5.06298e-05 0.00467757 4e-05 
0.000781415 0.000110001 0.0048061 4e-05 
0.000652955 0.000100003 0.00472394 5e-05 
0.000720854 0.000120001 0.00468165 3e-05 
0.000737192 0.000120001 0.00473938 3e-05 
0.000801025 9.00022e-05 0.00465386 6e-05 
0.000797186 0.000120002 0.00473862 3e-05 
0.000701739 0.000110003 0.00479891 4e-05 
0.000970002 5.56617e-06 0.00472015 3e-05 
0.000949994 -3.78356e-05 0.004656 5e-05 
0.000848533 -1.67308e-05 0.00469677 6e-05 
0.000825112 5.88025e-05 0.00475797 4e-05 
0.000930001 8.00031e-05 0.00466668 7e-05 
0.000879203 0.000110003 0.00478717 4e-05 
0.000960001 0.000110001 0.00476817 4e-05 
0.000855579 0.000120001 0.00472153 3e-05 
0.000917103 2.92418e-05 0.0047753 5e-05 
-0.000940001 -4.55762e-05 0.00490845 6e-05 
-0.000420694 -5.20809e-05 0.00482469 4e-05 
-0.000203093 -4.54834e-05 0.00484125 5e-05 
-0.000960001 3.499e-05 0.00485269 4e-05 
-0.000881353 0.000120002 0.00497 3e-05 
-0.000958409 0.000110001 0.00488045 4e-05 
-0.000889725 4.29977e-05 0.00495 5e-05 
-0.000949909 0.000110001 0.00496 4e-05 
-0.000860803 9.00027e-05 0.00485486 6e-05 
-0.000801694 1.12471e-05 0.00483742 4e-05 
-0.000753743 5.19107e-06 0.00493197 6e-05 
-0.000740993 9.0003e-05 0.00484804 6e-05 
-0.000683536 0.00013 0.00488919 2e-05 
-0.00080652 0.000100002 0.00495 5e-05 
-0.000700967 0.000100002 0.00495 5e-05 
-0.000645977 0.00013 0.00491445 2e-05 
-0.00067183 2.17734e-05 0.00487172 4e-05 
-0.000637845 3.62714e-05 0.00494268 4e-05 
-0.000593821 -2.82383e-05 0.00496 4e-05 
-0.000519394 -2.96801e-05 0.0049307 4e-05 
-0.00057799 1.92993e-05 0.00487764 5e-05 
-0.000528989 0.000110002 0.00483069 4e-05 
-0.000631555 0.000100002 0.0048528 5e-05 
-0.000558954 5.01948e-05 0.00496 4e-05 
-0.000551862 0.000110001 0.00490735 4e-05 
-0.000612087 0.000110002 0.00496 4e-05 
-0.000522299 0.000120001 0.00497 3e-05 
-0.000462301 0.000120001 0.00497 3e-05 
-0.00046981 4.29055e-05 0.00495 5e-05 
-0.000480897 6.13294e-06 0.00485766 5e-05 
-0.000341795 -3.57387e-05 0.00485442 3e-05 
-0.00044895 0.000100003 0.0048706 5e-05 
-0.000387545 0.000100002 0.00494971 5e-05 
-0.000371539 0.000120003 0.00487323 3e-05 
-0.000385469 2.94915e-05 0.00483901 5e-05 
-0.00031279 0.000120001 0.00497 3e-05 
-0.000360344 -6.13672e-06 0.00494 6e-05 
-0.000280552 8.00021e-05 0.00488421 7e-05 
-0.000279606 -2.9978e-05 0.00488603 4e-05 
-0.000215277 0.00013 0.00484738 2e-05 
-0.000222786 -2.05881e-06 0.00495 5e-05 
-9.47976e-05 -1.18892e-05 0.00497 3e-05 
-9.18266e-05 -4.03157e-06 0.00489735 4e-05 
-0.000138639 5.1969e-05 0.00495 5e-05 
-0.000206695 0.000110002 0.00496 4e-05 
-8.75981e-05 0.000120001 0.00496942 3e-05 
-0.000160797 5.6046e-05 0.00483966 6e-05 
6.11429e-05 5.66633e-06 0.00497 3e-05 
-1.96707e-05 6.97575e-06 0.00495 5e-05 
6.21423e-05 -8.38897e-06 0.0048721 6e-05 
3.14524e-05 0.000110002 0.00484416 4e-05 
-5.62638e-05 9.00036e-05 0.00488781 6e-05 
-2.76005e-05 0.000120001 0.00496996 3e-05 
5.17878e-05 9.00025e-05 0.00494 6e-05 
0.000206074 -1.39088e-05 0.00497 3e-05 
0.000154763 1.72257e-05 0.00483955 4e-05 
0.000137029 2.11999e-05 0.00495 5e-05 
0.000265311 1.60711e-05 0.00486282 4e-05 
0.000201224 5.17113e-05 0.00489479 4e-05 
0.000124921 0.000100002 0.00485845 5e-05 
0.000188257 0.000120002 0.00490304 3e-05 
0.000147701 0.000110002 0.00496 4e-05 
0.000255106 0.000110001 0.00488484 4e-05 
0.000227698 0.000110001 0.00496 4e-05 
0.000255248 3.48959e-05 0.00496 4e-05 
0.000299414 0.00011 0.00481824 4e-05 
0.000340365 2.50098e-05 0.00482802 4e-05 
0.000398609 -2.72372e-05 0.00484469 4e-05 
0.000311965 6.60909e-05 0.00487769 3e-05 
0.000351489 4.72639e-05 0.00498 2e-05 
0.000370726 2.4638e-05 0.00491275 5e-05 
0.000398979 0.000110002 0.00490891 4e-05 
0.000338215 0.000120003 0.00487563 3e-05 
0.000316576 0.000100001 0.00495 5e-05 
0.000432233 0.000120001 0.00497 3e-05 
0.000390505 7.68904e-05 0.00497 3e-05 
0.000452402 4.60308e-05 0.00495922 4e-05 
0.000439106 6.0247e-05 0.00488038 3e-05 
0.000480988 1.98623e-05 0.00489504 3e-05 
0.000530026 4.74907e-05 0.00487426 3e-05 
0.000539013 2.33765e-05 0.00495 5e-05 
0.000480333 0.000110001 0.00492014 4e-05 
0.000487922 0.000100002 0.00483102 5e-05 
0.000585841 0.000100002 0.0048513 5e-05 
0.000528433 0.000120001 0.00497 3e-05 
0.000603265 0.000100002 0.00495 5e-05 
0.000625761 -2.65532e-06 0.00490761 5e-05 
0.000737549 6.71373e-05 0.0048411 3e-05 
0.000723343 2.1536e-05 0.00489227 4e-05 
0.000677176 4.94198e-05 0.00496 4e-05 
0.000807667 2.86279e-05 0.00484095 5e-05 
0.000788898 4.32047e-05 0.00495 5e-05 
0.000679771 0.000100002 0.00488561 5e-05 
0.000769077 0.000110001 0.00489052 4e-05 
0.00072942 0.000110002 0.00496 4e-05 
0.00096 -7.9675e-06 0.00486542 4e-05 
0.000880234 -2.44868e-05 0.00483738 4e-05 
0.000872064 6.71544e-05 0.00482856 2e-05 
0.000863698 2.30844e-05 0.00497 3e-05 
0.000871199 0.000100002 0.00494933 5e-05 
0.000874645 2.38576e-05 0.00490087 4e-05 
0.000950001 2.1122e-05 0.00495 5e-05 
0.000842207 0.000110001 0.0048581 4e-05 
0.000940002 9.00022e-05 0.00486409 6e-05 
0.000960001 0.000110002 0.00496 4e-05 
