ITEM: TIMESTEP
750000
ITEM: NUMBER OF ATOMS
1472
ITEM: BOX BOUNDS mm mm mm
-3e-06 0.030003
-8e-06 0.080008
-3e-06 0.030003
ITEM: ATOMS v_x1 v_y1 v_z1 v_rad1 
6.77376e-05 7.70357e-06 0.000225938 7.705e-06 
6.48964e-05 3.48337e-05 0.000238241 8.755e-06 
4.2626e-05 2.60387e-05 0.000208753 8.755e-06 
4.01336e-05 6.77924e-06 0.000245851 6.78e-06 
4.85597e-05 1.83281e-05 0.00022997 1.45885e-05 
3.14563e-05 4.09875e-05 0.000209944 9.945e-06 
7.70422e-06 5.64707e-05 0.000207703 7.705e-06 
1.31725e-05 1.18882e-05 0.000211299 1.1301e-05 
6.68752e-05 1.97938e-05 0.0002113 1.1301e-05 
3.28173e-05 8.75491e-06 0.000208754 8.755e-06 
5.70457e-05 4.53394e-05 0.000216572 1.6575e-05 
1.13002e-05 3.44119e-05 0.0002113 1.1301e-05 
4.05263e-05 1.30177e-05 0.000260072 8.755e-06 
4.79876e-05 3.43775e-05 0.000254328 1.45885e-05 
6.77841e-06 6.77851e-06 0.00022742 6.78e-06 
1.28394e-05 7.56888e-05 0.000212839 1.284e-05 
6.31622e-05 9.94436e-06 0.000247812 9.945e-06 
1.88304e-05 2.097e-05 0.000245004 1.88315e-05 
5.03265e-05 8.75432e-06 0.000208754 8.755e-06 
7.83274e-05 3.20214e-05 0.000225114 9.945e-06 
3.99919e-05 6.39864e-05 0.000228339 1.1301e-05 
2.98508e-05 6.08114e-05 0.000209943 9.945e-06 
8.10909e-05 7.70388e-06 0.000207704 7.705e-06 
3.46917e-05 3.92969e-05 0.000229495 9.945e-06 
7.41031e-05 6.01971e-05 0.000207705 7.705e-06 
1.45914e-05 5.3338e-05 0.000228672 1.45885e-05 
5.93946e-05 7.26102e-05 0.0002113 1.1301e-05 
2.5514e-05 7.87164e-05 0.000237514 1.1301e-05 
3.32014e-05 5.21355e-05 0.000244612 9.945e-06 
5.77075e-05 7.70798e-05 0.00023339 1.1301e-05 
2.65386e-05 6.62655e-05 0.000250584 6.78e-06 
4.23182e-05 7.12676e-05 0.000248168 9.945e-06 
7.98084e-05 7.70448e-06 0.000238114 7.705e-06 
5.58166e-05 5.59375e-05 0.000242325 1.1301e-05 
6.09658e-05 7.23665e-05 0.00025261 8.755e-06 
4.43005e-05 5.67543e-05 0.00025624 6.78e-06 
8.13999e-05 7.77736e-05 0.000211299 1.1301e-05 
7.0622e-05 1.97156e-05 0.000235148 7.705e-06 
8.47302e-05 5.85445e-05 0.000234256 1.88315e-05 
8.9687e-05 2.02773e-05 0.000234208 8.755e-06 
8.48466e-05 4.31237e-05 0.000209944 9.945e-06 
9.94486e-06 6.68873e-05 0.000248589 9.945e-06 
7.5458e-05 3.86152e-05 0.000254866 1.1301e-05 
6.92819e-05 5.76236e-05 0.000257092 8.755e-06 
7.67283e-05 7.69911e-05 0.000251572 7.705e-06 
6.60538e-05 2.3374e-05 0.000257351 6.78e-06 
4.24848e-05 8.51602e-05 0.000238858 6.78e-06 
8.28653e-05 7.70466e-06 0.00022301 7.705e-06 
7.70432e-06 7.41792e-05 0.000232673 7.705e-06 
9.17332e-05 2.30336e-05 0.0002113 1.1301e-05 
1.13003e-05 8.86308e-05 0.000252022 1.1301e-05 
9.62488e-05 3.39578e-05 0.000247323 1.1301e-05 
9.91637e-05 8.75463e-06 0.000225043 8.755e-06 
0.000110026 3.61333e-05 0.000205965 5.965e-06 
0.000107659 5.03933e-05 0.000208754 8.755e-06 
0.000110634 2.80362e-05 0.000256539 6.78e-06 
0.000110208 6.74924e-05 0.000247626 1.1301e-05 
0.000101328 8.41761e-05 0.000237486 5.965e-06 
0.000105845 3.66874e-05 0.000225341 1.284e-05 
0.000127202 4.98696e-05 0.000209944 9.945e-06 
0.000119696 2.27717e-05 0.000211298 1.1301e-05 
0.000144198 1.45875e-05 0.000214587 1.45885e-05 
0.000143438 6.03492e-05 0.000228033 1.45885e-05 
0.00011667 8.75336e-06 0.000225316 8.755e-06 
0.000114868 7.50403e-05 0.000218829 1.88315e-05 
0.000105582 8.75356e-06 0.000208754 8.755e-06 
0.000107617 1.2851e-05 0.000244487 1.284e-05 
0.000118918 5.21493e-05 0.000235789 9.945e-06 
0.000132081 3.53866e-05 0.000227734 1.284e-05 
0.000117259 3.21237e-05 0.000243096 8.755e-06 
0.000170152 8.75375e-06 0.000208753 8.755e-06 
0.000164625 5.84885e-05 0.000225981 6.78e-06 
0.000145359 9.94488e-06 0.000253607 9.945e-06 
0.00014048 7.31708e-05 0.000208753 8.755e-06 
0.00017185 1.84315e-05 0.000229925 1.45885e-05 
0.00015149 8.75417e-06 0.000235981 8.755e-06 
0.000139798 8.19917e-05 0.000250157 1.6575e-05 
0.00015403 3.78993e-05 0.000250425 1.88315e-05 
0.000159055 3.96975e-05 0.000214587 1.45885e-05 
0.000132005 1.32761e-05 0.000237423 1.1301e-05 
0.000178787 4.65111e-05 0.000232377 1.284e-05 
0.000164492 6.71455e-05 0.000244243 1.284e-05 
0.000190383 7.35378e-05 0.000231837 1.6575e-05 
0.000191904 1.57197e-05 0.00024844 1.284e-05 
0.000173085 6.47976e-05 0.0002113 1.1301e-05 
0.000188456 7.53966e-05 0.000207705 7.705e-06 
0.00016518 9.94466e-06 0.000251956 9.945e-06 
0.000185925 5.12552e-05 0.000207704 7.705e-06 
0.000151336 6.27285e-05 0.000259392 7.705e-06 
0.000193075 3.12929e-05 0.000214586 1.45885e-05 
0.000156276 7.7678e-05 0.000207704 7.705e-06 
0.000160838 7.51768e-05 0.00022332 8.755e-06 
0.000188902 8.77061e-06 0.000208755 8.755e-06 
0.000187246 5.6304e-05 0.000246021 5.965e-06 
0.000194621 9.94313e-06 0.000226569 9.945e-06 
0.000159371 8.53366e-05 0.000236185 7.705e-06 
0.000199275 4.88882e-05 0.000205964 5.965e-06 
0.00020658 7.67455e-05 0.000254297 1.1301e-05 
0.000201955 6.40561e-05 0.000209942 9.945e-06 
0.00020932 1.14043e-05 0.0002113 1.1301e-05 
0.00021124 4.34725e-05 0.000243158 2.1395e-05 
0.000214672 4.84545e-05 0.000209944 9.945e-06 
0.000227492 6.16246e-05 0.000205965 5.965e-06 
0.000246114 3.09094e-05 0.000216573 1.6575e-05 
0.000247835 7.70478e-06 0.000207704 7.705e-06 
0.000292295 7.70479e-06 0.000229613 7.705e-06 
0.000254924 9.94429e-06 0.000230215 9.945e-06 
0.000288699 1.12997e-05 0.0002113 1.1301e-05 
0.000230472 9.9449e-06 0.000209944 9.945e-06 
0.000273105 2.99199e-05 0.000223472 1.1301e-05 
0.000265978 1.2076e-05 0.0002113 1.1301e-05 
0.000292296 2.96117e-05 0.000207704 7.705e-06 
0.000286551 3.69735e-05 0.000256512 9.945e-06 
0.000217181 1.16267e-05 0.000247582 1.1301e-05 
0.000292295 7.70423e-06 0.000245022 7.705e-06 
0.000292295 2.60208e-05 0.00022277 7.705e-06 
0.000278442 2.54849e-05 0.000206778 6.78e-06 
0.000217481 2.13346e-05 0.000225335 7.705e-06 
0.000248836 4.94875e-05 0.000243891 1.6575e-05 
0.000274811 9.94422e-06 0.000230503 9.945e-06 
0.00028025 4.13294e-05 0.000206779 6.78e-06 
0.000225062 2.39436e-05 0.000259723 7.705e-06 
0.000264289 2.44972e-05 0.000245281 1.284e-05 
0.000287369 2.16821e-05 0.000237863 8.755e-06 
0.000273608 5.39327e-05 0.000225895 1.284e-05 
0.000232579 1.13e-05 0.00023104 1.1301e-05 
0.000240394 2.33256e-05 0.000248508 1.1301e-05 
0.000237704 6.36469e-05 0.000227612 7.705e-06 
0.00022048 2.94323e-05 0.000209943 9.945e-06 
0.000220032 6.58099e-05 0.000220963 1.1301e-05 
0.00026581 4.19968e-05 0.000207705 7.705e-06 
0.000292295 2.05538e-05 0.000253528 7.705e-06 
0.000211832 7.70349e-06 0.000229772 7.705e-06 
0.000239036 7.33032e-05 0.000211298 1.1301e-05 
0.000251592 6.733e-05 0.000225777 6.78e-06 
0.000290056 4.01747e-05 0.000237197 9.945e-06 
0.000273537 4.40104e-05 0.000245074 8.755e-06 
0.000236706 5.16777e-05 0.000207705 7.705e-06 
0.000254614 5.69282e-05 0.0002113 1.1301e-05 
0.000290009 5.63079e-05 0.000208754 8.755e-06 
0.00027512 6.33578e-05 0.000207703 7.705e-06 
0.000228804 4.64481e-05 0.00021866 6.78e-06 
0.000255123 7.06944e-05 0.000251387 6.78e-06 
0.000292295 6.23742e-05 0.000223883 7.705e-06 
0.000230668 6.5019e-05 0.000258235 1.1301e-05 
0.00028716 6.07134e-05 0.000246626 1.284e-05 
0.000290349 4.18166e-05 0.000218573 8.755e-06 
0.000264697 5.96447e-06 0.000242122 5.965e-06 
0.000267455 6.27545e-05 0.000252067 7.705e-06 
0.000212724 8.38434e-05 0.000225819 8.755e-06 
0.000215483 8.1057e-05 0.000208754 8.755e-06 
0.000263662 7.11537e-05 0.000237014 9.945e-06 
0.000263503 8.10959e-05 0.000214587 1.45885e-05 
0.000288701 7.61572e-05 0.0002113 1.1301e-05 
0.000215534 7.30694e-05 0.000237941 7.705e-06 
0.000290044 7.82732e-05 0.000232397 9.945e-06 
0.000274427 5.13736e-05 0.000259768 7.705e-06 
0.000291245 8.08369e-05 0.000253309 8.755e-06 
3.96165e-05 9.1533e-05 0.000216573 1.6575e-05 
6.4017e-05 9.02276e-05 0.00025723 9.945e-06 
9.50315e-05 9.40132e-05 0.000209944 9.945e-06 
7.70464e-06 9.63312e-05 0.000207704 7.705e-06 
6.58822e-05 9.27949e-05 0.000209944 9.945e-06 
8.0306e-05 9.69796e-05 0.000234489 1.88315e-05 
4.79343e-05 0.000107127 0.000244619 1.6575e-05 
8.71271e-05 0.000114967 0.000211299 1.1301e-05 
8.47617e-05 0.000139198 0.000205965 5.965e-06 
6.1513e-05 0.000112198 0.000209944 9.945e-06 
4.42739e-05 0.000158094 0.000211299 1.1301e-05 
2.63809e-05 0.000146721 0.000209944 9.945e-06 
4.11344e-05 0.000125044 0.000214586 1.45885e-05 
1.3205e-05 0.00011772 0.000212838 1.284e-05 
7.7043e-06 0.000136836 0.000207704 7.705e-06 
1.28389e-05 9.6706e-05 0.000227593 1.284e-05 
6.56816e-05 0.000143914 0.000214587 1.45885e-05 
9.94438e-06 0.000169607 0.000209944 9.945e-06 
5.9137e-05 0.000127026 0.000231134 9.945e-06 
1.28459e-05 0.000140626 0.000227229 1.284e-05 
7.25682e-05 0.000120965 0.000239045 6.78e-06 
3.9978e-05 0.000147113 0.000236556 1.6575e-05 
5.53772e-05 0.000164626 0.00022667 8.755e-06 
1.54625e-05 0.00010879 0.000246765 9.945e-06 
7.70469e-06 0.000152245 0.000207705 7.705e-06 
2.12098e-05 0.000129244 0.000246827 1.1301e-05 
8.75301e-06 0.000120465 0.00023379 8.755e-06 
7.21419e-05 0.000119063 0.000222248 7.705e-06 
1.13001e-05 0.000163556 0.000234618 1.1301e-05 
2.66431e-05 0.000166002 0.000220129 9.945e-06 
9.76045e-05 0.000149798 0.0002113 1.1301e-05 
2.63488e-05 0.000114694 0.000231201 9.945e-06 
8.75483e-06 0.000148056 0.000247088 8.755e-06 
8.78468e-05 0.000132855 0.000230001 1.45885e-05 
4.45078e-05 0.000171975 0.000238264 8.755e-06 
9.49426e-05 0.00011736 0.000245952 8.755e-06 
6.30569e-05 0.000167929 0.000209943 9.945e-06 
6.18809e-05 0.000141796 0.00023637 5.965e-06 
8.26203e-05 0.00016616 0.000224639 1.45885e-05 
5.67536e-05 0.000162428 0.000241986 6.78e-06 
6.60891e-05 0.00015461 0.000234142 7.705e-06 
7.60734e-05 0.00016076 0.000249098 1.1301e-05 
7.0088e-05 0.00013407 0.000240276 5.965e-06 
8.53752e-05 0.000176235 0.000250063 6.78e-06 
9.57517e-05 0.000147096 0.000252068 1.284e-05 
9.48768e-05 0.000104235 0.000254262 6.78e-06 
9.44046e-05 0.000169088 0.000205965 5.965e-06 
9.76009e-05 0.000105772 0.000220224 5.25e-06 
0.000173827 8.88778e-05 0.000212839 1.284e-05 
0.00019119 9.28428e-05 0.000258152 1.1301e-05 
0.000104883 0.000174619 0.000241494 1.45885e-05 
0.000110952 0.000128108 0.000243126 9.945e-06 
0.000105216 0.000128517 0.000211299 1.1301e-05 
0.000114659 0.000168996 0.000214586 1.45885e-05 
0.000118316 0.000145186 0.000209943 9.945e-06 
0.000110923 0.000147617 0.000231356 1.284e-05 
0.00010597 0.00011999 0.000228267 7.705e-06 
0.000131464 0.000146041 0.000223212 8.755e-06 
0.000138694 0.000167327 0.000209943 9.945e-06 
0.000142958 0.000156404 0.000221869 6.78e-06 
0.00011411 0.000106129 0.000212838 1.284e-05 
0.000149314 0.000138731 0.000224149 7.705e-06 
0.000130069 0.000137616 0.000245697 1.1301e-05 
0.000114572 0.000101864 0.000241937 1.6575e-05 
0.000134969 0.000110811 0.000256331 9.945e-06 
0.000140259 0.000133469 0.000209944 9.945e-06 
0.000144276 9.85682e-05 0.00021883 1.88315e-05 
0.000155741 0.000156188 0.000230692 8.755e-06 
0.000168785 0.000143069 0.000207704 7.705e-06 
0.000181396 0.000111749 0.0002113 1.1301e-05 
0.000129463 0.000116757 0.00020678 6.78e-06 
0.000162384 0.000171722 0.000214586 1.45885e-05 
0.000152589 0.000149714 0.000209944 9.945e-06 
0.000161098 0.000124724 0.000212839 1.284e-05 
0.000125584 0.000125376 0.000225379 1.284e-05 
0.000186818 0.000134684 0.000211299 1.1301e-05 
0.00013509 0.000150196 0.000207704 7.705e-06 
0.000162925 0.000142502 0.000220938 6.78e-06 
0.000135608 0.000113601 0.000238905 7.705e-06 
0.00019419 0.000147285 0.000232678 1.45885e-05 
0.000118609 0.000155774 0.000252751 1.1301e-05 
0.000172497 0.000153442 0.000226417 8.755e-06 
0.000185745 0.000132796 0.000250583 9.945e-06 
0.000151078 0.00010561 0.000245888 9.945e-06 
0.000186726 0.0001226 0.000230399 1.1301e-05 
0.000134339 0.000169547 0.000229222 9.945e-06 
0.000148207 0.000123431 0.000230116 8.755e-06 
0.000181103 0.000155507 0.000209945 9.945e-06 
0.000175336 0.000137231 0.000226227 7.705e-06 
0.00016647 0.000112984 0.000233235 1.1301e-05 
0.000126206 0.000120789 0.000245746 5.965e-06 
0.000162723 0.000138746 0.000244545 1.45885e-05 
0.000196705 0.000120238 0.000206778 6.78e-06 
0.000186517 0.000102644 0.00022842 8.755e-06 
0.000151654 0.000116032 0.000258956 6.78e-06 
0.000166204 0.000105052 0.000256869 8.755e-06 
0.000144786 0.000124127 0.000247615 8.755e-06 
0.000142752 0.000147166 0.000235249 7.705e-06 
0.000129371 0.000154572 0.000237132 7.705e-06 
0.00017497 9.41874e-05 0.000242469 1.1301e-05 
0.00016149 0.000118085 0.000249851 6.78e-06 
0.000180972 0.000113575 0.000248751 9.945e-06 
0.000126018 0.000177753 0.000241186 6.78e-06 
0.000177446 0.000155483 0.0002449 7.705e-06 
0.000167517 0.000168529 0.000238362 9.945e-06 
0.000183543 0.000168529 0.000226582 9.945e-06 
0.000145599 0.000163943 0.000252569 1.6575e-05 
0.000193242 0.000166375 0.00024223 6.78e-06 
0.000182579 0.000174751 0.000242123 6.78e-06 
0.000186439 0.000173388 0.000208754 8.755e-06 
0.000198817 0.000112682 0.000241198 7.705e-06 
0.000198925 9.43046e-05 0.000212839 1.284e-05 
0.000199478 0.000113755 0.000219429 7.705e-06 
0.000212802 0.000143136 0.000240348 5.965e-06 
0.000292295 9.18689e-05 0.00022137 7.705e-06 
0.00022991 9.09794e-05 0.000208754 8.755e-06 
0.000215797 9.57546e-05 0.000259632 9.945e-06 
0.000200902 0.000153623 0.000209944 9.945e-06 
0.000206627 0.000104638 0.000226683 5.965e-06 
0.000202835 0.000128851 0.000244096 8.755e-06 
0.000205701 9.49683e-05 0.000240955 1.1301e-05 
0.000204723 0.000120935 0.000230864 6.78e-06 
0.000206838 0.000170103 0.000230909 1.1301e-05 
0.000231819 0.000155441 0.00024385 1.1301e-05 
0.000217216 0.000113233 0.000247637 1.1301e-05 
0.000217736 9.88337e-05 0.00022123 7.705e-06 
0.000218759 0.000130118 0.000236925 8.755e-06 
0.000217824 0.000152119 0.000228216 9.945e-06 
0.0002124 0.000132455 0.000214587 1.45885e-05 
0.000219835 0.000159713 0.000209944 9.945e-06 
0.000286546 9.60959e-05 0.000207705 7.705e-06 
0.000230717 0.000147159 0.000218994 5.965e-06 
0.000293194 0.000109154 0.000206779 6.78e-06 
0.000230447 0.000140027 0.000230652 7.705e-06 
0.000271302 0.00010231 0.000208753 8.755e-06 
0.000294751 0.000103995 0.000217534 5.25e-06 
0.000233301 0.00016113 0.000222841 8.755e-06 
0.000292296 0.00012844 0.000207704 7.705e-06 
0.000241009 0.00015071 0.000207704 7.705e-06 
0.000218237 0.000113992 0.000227622 8.755e-06 
0.000291246 0.000117358 0.000219826 8.755e-06 
0.000279183 0.000105399 0.00022408 8.755e-06 
0.000209217 0.000111491 0.000207704 7.705e-06 
0.000246947 9.85935e-05 0.000209944 9.945e-06 
0.00024823 0.000167919 0.000211298 1.1301e-05 
0.000238949 9.02991e-05 0.000239227 2.1395e-05 
0.000260684 0.00013756 0.0002113 1.1301e-05 
0.000283198 0.00014613 0.000212838 1.284e-05 
0.000238827 0.00013181 0.0002113 1.1301e-05 
0.000264958 0.000156988 0.000208754 8.755e-06 
0.000263524 0.000162413 0.000231445 1.45885e-05 
0.000248821 0.000112416 0.000253621 6.78e-06 
0.000227704 0.000136313 0.000252132 9.945e-06 
0.000229816 0.000111084 0.000211309 1.1301e-05 
0.000291245 9.56333e-05 0.000243948 8.755e-06 
0.000216914 9.92566e-05 0.000206777 6.78e-06 
0.000235672 0.000117188 0.00024986 7.705e-06 
0.000288701 0.000156848 0.000233757 1.1301e-05 
0.000255624 0.00013492 0.000232344 7.705e-06 
0.000287161 0.000132759 0.000234401 1.284e-05 
0.000245704 0.000147124 0.000224334 9.945e-06 
0.000236241 0.000121944 0.000231468 1.1301e-05 
0.000277795 0.000119105 0.000208754 8.755e-06 
0.000227622 0.000145257 0.000206778 6.78e-06 
0.000269421 0.00014252 0.000226332 6.78e-06 
0.000260205 0.000103309 0.000222259 8.755e-06 
0.000267299 0.000141145 0.000248349 1.284e-05 
0.000253805 0.000116533 0.000239496 8.755e-06 
0.000267538 0.000121637 0.0002258 1.1301e-05 
0.000292296 0.000108368 0.000233574 7.705e-06 
0.000246468 0.000131993 0.000247146 9.945e-06 
0.000276892 0.00011114 0.000241728 9.945e-06 
0.000254134 0.000117139 0.000209944 9.945e-06 
0.000262981 0.000105403 0.000236562 5.965e-06 
0.000273253 9.08201e-05 0.000236509 1.1301e-05 
0.000290055 0.000146561 0.000252296 9.945e-06 
0.000249354 0.000148481 0.000241549 7.705e-06 
0.000264307 0.000119465 0.000254687 9.945e-06 
0.00027644 0.000162793 0.000253879 1.1301e-05 
0.000264392 0.000101056 0.000251306 8.755e-06 
0.000290056 0.000167663 0.000209944 9.945e-06 
0.000242292 0.000168477 0.000234506 7.705e-06 
0.000270383 0.000174844 0.000209944 9.945e-06 
0.000292295 0.000171002 0.000245921 7.705e-06 
0.000205096 0.000173066 0.000209943 9.945e-06 
0.000234098 0.000172192 0.000254641 8.755e-06 
0.000249315 0.000163116 0.000249951 8.755e-06 
0.0002788 0.000175967 0.000240385 7.705e-06 
0.000226275 0.000175069 0.000237902 9.945e-06 
4.43008e-05 0.000185465 0.000216573 1.6575e-05 
9.31639e-05 0.000188562 0.000212838 1.284e-05 
7.70373e-06 0.000186969 0.000207703 7.705e-06 
7.22137e-05 0.000184775 0.000208755 8.755e-06 
2.62764e-05 0.000180272 0.000237283 1.1301e-05 
6.55389e-05 0.00018558 0.000242024 1.6575e-05 
7.70445e-06 0.000181799 0.000230686 7.705e-06 
6.70451e-05 0.000228297 0.000240097 8.755e-06 
8.91273e-05 0.000190122 0.000233994 8.755e-06 
8.62132e-05 0.000202834 0.00024923 1.1301e-05 
1.87713e-05 0.000191301 0.00022075 9.945e-06 
8.75439e-06 0.000179147 0.000246975 8.755e-06 
3.99054e-05 0.000194668 0.000248137 1.1301e-05 
1.28393e-05 0.000200266 0.000240838 1.284e-05 
7.70451e-06 0.000205046 0.000221077 7.705e-06 
5.81307e-05 0.000202753 0.000226542 7.705e-06 
6.40607e-05 0.000201863 0.000209943 9.945e-06 
4.35667e-05 0.000216556 0.000214587 1.45885e-05 
7.7047e-06 0.000219684 0.000216049 7.705e-06 
2.11131e-05 0.000207832 0.000209944 9.945e-06 
2.21996e-05 0.000227692 0.000209943 9.945e-06 
5.64068e-05 0.000245669 0.000207704 7.705e-06 
1.02579e-05 0.000264795 0.000209944 9.945e-06 
5.96424e-06 0.000210621 0.000205964 5.965e-06 
9.94448e-06 0.000244908 0.000209944 9.945e-06 
7.82473e-05 0.000207373 0.000226899 1.284e-05 
7.90424e-05 0.000262747 0.000207703 7.705e-06 
1.28388e-05 0.000254391 0.000230673 1.284e-05 
6.4089e-05 0.000259027 0.000207704 7.705e-06 
9.54175e-05 0.000261468 0.000208754 8.755e-06 
8.61166e-05 0.000228929 0.000207704 7.705e-06 
3.81796e-05 0.000241663 0.0002113 1.1301e-05 
2.21474e-05 0.000219454 0.000229526 1.1301e-05 
2.79658e-05 0.000258905 0.000208754 8.755e-06 
5.25116e-06 0.000199451 0.00020525 5.25e-06 
9.88091e-05 0.000213613 0.000212839 1.284e-05 
4.70265e-05 0.000209489 0.000236653 8.755e-06 
3.20931e-05 0.000202123 0.000231237 8.755e-06 
6.84333e-05 0.000222964 0.000211299 1.1301e-05 
7.48336e-05 0.000232733 0.000226292 7.705e-06 
5.96462e-06 0.000222878 0.000234475 5.965e-06 
5.63492e-05 0.000236771 0.000224496 1.1301e-05 
4.67029e-05 0.000261077 0.000209944 9.945e-06 
2.24861e-05 0.000240864 0.000220242 6.78e-06 
6.10651e-05 0.000218554 0.000228254 7.705e-06 
5.77685e-05 0.000249663 0.000246902 1.45885e-05 
8.91553e-05 0.000227246 0.000224798 7.705e-06 
3.2767e-05 0.000256964 0.000224378 7.705e-06 
4.63249e-05 0.000251804 0.000223859 6.78e-06 
7.56611e-05 0.000244386 0.0002113 1.1301e-05 
3.87211e-05 0.000221343 0.000233979 5.965e-06 
8.75435e-06 0.000233613 0.000224798 8.755e-06 
8.75496e-06 0.000236507 0.000242067 8.755e-06 
3.49771e-05 0.000239721 0.000235327 1.284e-05 
6.27571e-05 0.000208826 0.000238852 6.78e-06 
8.87424e-05 0.000244405 0.000239224 1.45885e-05 
7.11914e-05 0.000262444 0.000226685 1.284e-05 
5.09124e-05 0.000225354 0.000238684 7.705e-06 
8.78688e-05 0.000254264 0.000220262 6.78e-06 
9.26079e-05 0.000266832 0.000244421 8.755e-06 
0.000195915 0.000184832 0.000241638 9.945e-06 
0.000106368 0.000208731 0.000252453 9.945e-06 
0.000142976 0.000181509 0.000219536 7.705e-06 
0.000104269 0.000200595 0.000230724 9.945e-06 
0.000142029 0.000196963 0.000248307 1.284e-05 
0.000109318 0.000222484 0.000234529 1.284e-05 
0.000117937 0.000230499 0.000251368 7.705e-06 
0.000103878 0.000240511 0.000214587 1.45885e-05 
0.000103628 0.00026251 0.000228231 1.1301e-05 
0.000118113 0.000195136 0.000243919 9.945e-06 
0.000122681 0.000213557 0.000247752 7.705e-06 
0.000133416 0.000184025 0.000207705 7.705e-06 
0.000127105 0.000208592 0.000231403 9.945e-06 
0.000117681 0.000196199 0.000212838 1.284e-05 
0.000126274 0.000249794 0.000218342 9.945e-06 
0.000122556 0.000264182 0.000227864 7.705e-06 
0.000166665 0.000208908 0.000249306 1.284e-05 
0.000115164 0.0002589 0.000207705 7.705e-06 
0.000118559 0.000247357 0.000239641 1.284e-05 
0.000130499 0.000238476 0.000206779 6.78e-06 
0.000123327 0.00022125 0.000212839 1.284e-05 
0.000130946 0.000189131 0.000229961 9.945e-06 
0.000144138 0.000203213 0.000214586 1.45885e-05 
0.000152636 0.000182309 0.000234454 9.945e-06 
0.000194616 0.000258081 0.000230699 1.45885e-05 
0.000174274 0.000189321 0.000231941 1.284e-05 
0.000172394 0.000210478 0.000214588 1.45885e-05 
0.000161879 0.000255912 0.000216575 1.6575e-05 
0.000161441 0.000191795 0.00020678 6.78e-06 
0.000177556 0.000188475 0.000208754 8.755e-06 
0.000194153 0.000184664 0.000221828 9.945e-06 
0.000190652 0.000202383 0.000226671 8.755e-06 
0.000191735 0.000249464 0.000208755 8.755e-06 
0.000192574 0.000195127 0.000207703 7.705e-06 
0.000183894 0.000233811 0.000223751 1.284e-05 
0.000197949 0.000212998 0.000211299 1.1301e-05 
0.000159192 0.00020324 0.000231028 7.705e-06 
0.000132406 0.000227585 0.000239395 1.1301e-05 
0.000168397 0.000232722 0.000208753 8.755e-06 
0.000147321 0.000230399 0.000212838 1.284e-05 
0.00015996 0.00023253 0.000237086 1.45885e-05 
0.000140339 0.000249065 0.000207705 7.705e-06 
0.000141322 0.000244469 0.000228082 8.755e-06 
0.000178357 0.000243975 0.000205965 5.965e-06 
0.000188238 0.00020283 0.000245208 9.945e-06 
0.000137645 0.000219739 0.000224935 5.965e-06 
0.0001423 0.000242539 0.000253154 1.1301e-05 
0.000183418 0.000215612 0.000233272 7.705e-06 
0.000146288 0.000213692 0.000235333 8.755e-06 
0.000179214 0.000224609 0.000245055 7.705e-06 
0.000133205 0.000264274 0.000208754 8.755e-06 
0.000175759 0.000248536 0.000233848 6.78e-06 
0.0001414 0.000264678 0.000239764 1.45885e-05 
0.000170154 0.000249532 0.000249412 8.755e-06 
0.000184299 0.000240596 0.000244248 8.755e-06 
0.000196291 0.000224193 0.000249494 9.945e-06 
0.000198757 0.00026684 0.000254706 1.1301e-05 
0.000205833 0.000209057 0.000244061 8.755e-06 
0.000284027 0.000179958 0.000256886 7.705e-06 
0.000241555 0.000200881 0.000254574 7.705e-06 
0.000217014 0.000230992 0.000242609 7.705e-06 
0.000210145 0.000241487 0.000253267 8.755e-06 
0.00020726 0.000190439 0.000207705 7.705e-06 
0.000257524 0.000203396 0.000251478 8.755e-06 
0.00020483 0.000223576 0.000230049 1.1301e-05 
0.0002656 0.000222745 0.000246163 1.284e-05 
0.000214705 0.00024912 0.000209945 9.945e-06 
0.000209963 0.000197249 0.000228386 1.1301e-05 
0.000213814 0.000242828 0.000229913 9.945e-06 
0.000261739 0.000201531 0.000235677 7.705e-06 
0.000202016 0.000233805 0.000209944 9.945e-06 
0.000229066 0.000196018 0.000240401 1.1301e-05 
0.000221129 0.000215556 0.000238549 8.755e-06 
0.000246452 0.00018033 0.000225581 7.705e-06 
0.000246375 0.000248046 0.00024234 7.705e-06 
0.000290055 0.000177989 0.000226941 9.945e-06 
0.000277172 0.000201744 0.000234071 5.965e-06 
0.000217449 0.000204676 0.000209943 9.945e-06 
0.000271235 0.000189737 0.000249659 9.945e-06 
0.000237235 0.000229928 0.000239137 1.284e-05 
0.000216512 0.000261561 0.000222332 7.705e-06 
0.000227197 0.000182649 0.000214588 1.45885e-05 
0.000234384 0.000251537 0.000225428 1.284e-05 
0.000225898 0.000207119 0.000225246 7.705e-06 
0.000242259 0.000195112 0.00022675 7.705e-06 
0.00028508 0.000184568 0.00021092 7.705e-06 
0.000230922 0.000246529 0.000206778 6.78e-06 
0.000270904 0.000187184 0.00022723 1.1301e-05 
0.000249004 0.000253085 0.000207704 7.705e-06 
0.000255035 0.000189471 0.0002113 1.1301e-05 
0.000238719 0.000205597 0.000211299 1.1301e-05 
0.000291245 0.00024677 0.00026127 8.755e-06 
0.000253798 0.000204538 0.000222818 7.705e-06 
0.000292296 0.000197797 0.000207704 7.705e-06 
0.000236018 0.000261797 0.000207704 7.705e-06 
0.000274823 0.000198898 0.000209944 9.945e-06 
0.000225256 0.000227464 0.000214587 1.45885e-05 
0.000288554 0.000240117 0.000242543 1.1301e-05 
0.000289752 0.000197797 0.000225168 9.945e-06 
0.000253107 0.000240938 0.000219277 7.705e-06 
0.0002887 0.00021611 0.000211299 1.1301e-05 
0.000288699 0.000220139 0.000253112 1.1301e-05 
0.000256881 0.000239546 0.000205965 5.965e-06 
0.00025647 0.000207656 0.00020678 6.78e-06 
0.000212604 0.000184284 0.000240708 6.78e-06 
0.000250749 0.000223055 0.000209944 9.945e-06 
0.00026514 0.000240069 0.000228863 7.705e-06 
0.000268886 0.000252414 0.000212839 1.284e-05 
0.000269452 0.000229821 0.000209944 9.945e-06 
0.000290055 0.000221915 0.00023169 9.945e-06 
0.0002887 0.000238711 0.0002113 1.1301e-05 
0.000243155 0.000238829 0.000207704 7.705e-06 
0.000275468 0.000230035 0.000230685 6.78e-06 
0.000292295 0.000206634 0.000240232 7.705e-06 
0.000290056 0.000189388 0.000243239 9.945e-06 
0.000291246 0.000252111 0.000226698 8.755e-06 
0.000249514 0.000184249 0.000245513 1.284e-05 
0.000277507 0.000206026 0.000247048 7.705e-06 
0.000278555 0.000235444 0.000258016 7.705e-06 
0.000270212 0.000214025 0.00022413 1.1301e-05 
0.000255283 0.000226943 0.000227663 8.755e-06 
0.000266441 0.00024837 0.00024761 1.284e-05 
0.00024234 0.000218336 0.000223609 6.78e-06 
0.000255461 0.000253441 0.000229721 8.755e-06 
0.000279215 0.000242295 0.000226269 6.78e-06 
0.000245817 0.000208855 0.000237956 9.945e-06 
0.000270297 0.000208699 0.000260402 7.705e-06 
0.000233057 0.000212703 0.000249526 7.705e-06 
0.000222474 0.000262419 0.000205964 5.965e-06 
0.000200208 0.000238815 0.000240421 7.705e-06 
0.000234626 0.000245762 0.000255311 9.945e-06 
0.000287161 0.000263525 0.000248274 1.284e-05 
0.000290056 0.000260326 0.000209943 9.945e-06 
0.000219392 0.000259097 0.000244858 1.284e-05 
0.000204925 0.00026644 0.000209944 9.945e-06 
8.75458e-06 0.000272121 0.000242304 8.755e-06 
4.70845e-05 0.000269845 0.000231532 1.284e-05 
2.40955e-05 0.00027382 0.00020678 6.78e-06 
7.03241e-05 0.000285606 0.000230301 9.945e-06 
7.77097e-05 0.00029454 0.000219404 5.965e-06 
5.64926e-05 0.00028836 0.00021969 7.705e-06 
8.83296e-05 0.000277199 0.000229458 9.945e-06 
2.30372e-05 0.000277684 0.000227093 1.284e-05 
5.96533e-05 0.000274842 0.000208754 8.755e-06 
4.08959e-05 0.000281467 0.000211299 1.1301e-05 
7.70429e-06 0.000282114 0.000207705 7.705e-06 
8.23358e-05 0.000278839 0.000208754 8.755e-06 
9.09429e-05 0.000294035 0.000224851 7.705e-06 
6.07794e-05 0.000303547 0.000227593 9.945e-06 
1.90289e-05 0.000307477 0.000209944 9.945e-06 
6.77865e-06 0.000318414 0.000206779 6.78e-06 
1.76344e-05 0.000309543 0.000239958 1.284e-05 
9.24175e-05 0.000311091 0.000220561 9.945e-06 
6.7317e-05 0.000346314 0.000206779 6.78e-06 
1.76793e-05 0.000330696 0.000209944 9.945e-06 
2.25464e-05 0.000289151 0.000208754 8.755e-06 
3.74683e-05 0.000299087 0.000227439 1.284e-05 
6.87054e-05 0.00028983 0.000208754 8.755e-06 
5.16728e-05 0.000302448 0.000209944 9.945e-06 
8.78274e-05 0.000295474 0.000208754 8.755e-06 
9.94347e-06 0.000295953 0.000223367 9.945e-06 
5.75541e-05 0.000319028 0.000207704 7.705e-06 
7.33937e-05 0.000309162 0.000211301 1.1301e-05 
8.89986e-05 0.000325182 0.000208754 8.755e-06 
6.77955e-06 0.000296539 0.00020678 6.78e-06 
6.84789e-05 0.00034419 0.000222124 8.755e-06 
8.37892e-05 0.000334338 0.0002214 7.705e-06 
5.36718e-05 0.000289394 0.000237918 8.755e-06 
7.76593e-05 0.000320301 0.000227424 8.755e-06 
7.10077e-05 0.000330229 0.000209944 9.945e-06 
3.44205e-05 0.000343743 0.000208754 8.755e-06 
5.81181e-05 0.000324559 0.00022593 1.1301e-05 
7.90723e-05 0.000303322 0.000231464 8.755e-06 
3.76986e-05 0.000320211 0.000212839 1.284e-05 
5.24346e-05 0.000337345 0.000209944 9.945e-06 
8.26521e-05 0.00034481 0.000208754 8.755e-06 
3.44775e-05 0.000338097 0.000226581 9.945e-06 
9.49284e-05 0.00032659 0.000230717 8.755e-06 
1.28392e-05 0.000333493 0.000232031 1.284e-05 
5.07784e-05 0.00035166 0.000227877 1.1301e-05 
8.80219e-05 0.000354137 0.0002348 1.6575e-05 
1.45874e-05 0.000354585 0.000214586 1.45885e-05 
0.000133733 0.000274769 0.000221423 7.705e-06 
0.000111951 0.000286773 0.000228608 5.965e-06 
0.000103951 0.000302301 0.000208754 8.755e-06 
0.000146876 0.000268962 0.000205964 5.965e-06 
0.000103419 0.000281104 0.000212839 1.284e-05 
0.000104915 0.000297617 0.000223535 6.78e-06 
0.00011223 0.000327489 0.000228185 8.755e-06 
0.000122897 0.000277063 0.000207704 7.705e-06 
0.00015317 0.000307439 0.000241182 1.1301e-05 
0.000185043 0.000266989 0.000209943 9.945e-06 
0.000153793 0.000334681 0.000233121 1.284e-05 
0.000169795 0.000269578 0.000241389 1.284e-05 
0.000143522 0.000293219 0.000230842 8.755e-06 
0.000178966 0.000321746 0.000247334 1.88315e-05 
0.000127789 0.000283115 0.000235324 8.755e-06 
0.00015569 0.000279665 0.000226611 9.945e-06 
0.000135043 0.000329242 0.000218923 1.1301e-05 
0.00013443 0.000313319 0.000231101 8.755e-06 
0.000182193 0.000277121 0.000225399 8.755e-06 
0.000141136 0.000282225 0.000208754 8.755e-06 
0.000171753 0.000294717 0.000232485 1.284e-05 
0.000140581 0.000312869 0.000208753 8.755e-06 
0.000155936 0.00034478 0.0002113 1.1301e-05 
0.000173676 0.000283309 0.000209944 9.945e-06 
0.000105639 0.000319728 0.000208754 8.755e-06 
0.000164167 0.000314343 0.000206778 6.78e-06 
0.000178827 0.000303876 0.000211299 1.1301e-05 
0.000125505 0.00031604 0.000206778 6.78e-06 
0.000172522 0.000339183 0.000206778 6.78e-06 
0.000157002 0.000277979 0.000207703 7.705e-06 
0.000153123 0.000325087 0.000208754 8.755e-06 
0.000155511 0.000297814 0.000212839 1.284e-05 
0.000173809 0.000324926 0.000217819 1.1301e-05 
0.000193143 0.000304971 0.000226957 9.945e-06 
0.000125227 0.000297232 0.000216911 1.45885e-05 
0.00011792 0.000317285 0.000217948 6.78e-06 
0.000149888 0.00031586 0.000223279 8.755e-06 
0.000119175 0.000329032 0.000207704 7.705e-06 
0.00010874 0.000311078 0.000227275 7.705e-06 
0.000119653 0.000277614 0.000223288 6.78e-06 
0.000126368 0.00032616 0.000234484 6.78e-06 
0.00013844 0.000324983 0.000240547 6.78e-06 
0.000187872 0.000330758 0.000224311 5.25e-06 
0.000177702 0.000346624 0.000238188 7.705e-06 
0.000137714 0.000348808 0.000207705 7.705e-06 
0.000192856 0.000319772 0.000209944 9.945e-06 
0.000189954 0.000340774 0.0002113 1.1301e-05 
0.000176456 0.000286602 0.000250764 7.705e-06 
0.000196445 0.000287389 0.000212839 1.284e-05 
0.000128673 0.000338706 0.000205964 5.965e-06 
0.000172367 0.000344302 0.000222791 8.755e-06 
0.000103281 0.000340642 0.000213582 1.284e-05 
0.000192918 0.000299567 0.00025923 9.945e-06 
0.000198944 0.000322747 0.000227372 8.755e-06 
0.000162793 0.000352505 0.000237955 7.705e-06 
0.000121469 0.000351234 0.000208755 8.755e-06 
0.000175388 0.000354321 0.000208753 8.755e-06 
0.000122247 0.000346547 0.000229857 1.284e-05 
0.000197739 0.000338186 0.000253098 6.78e-06 
0.00019446 0.000286154 0.000240877 1.284e-05 
0.000106138 0.0003376 0.000241117 8.755e-06 
0.0002251 0.000322276 0.000255174 7.705e-06 
0.000210849 0.000274739 0.000232667 8.755e-06 
0.000226644 0.000309398 0.000248726 6.78e-06 
0.000204099 0.000324444 0.000258383 8.755e-06 
0.000239597 0.000299107 0.000251182 9.945e-06 
0.000207566 0.000308499 0.000244238 1.284e-05 
0.000244631 0.000341053 0.000253937 8.755e-06 
0.000214372 0.00033475 0.000240131 1.45885e-05 
0.000290056 0.000270772 0.000226868 9.945e-06 
0.00025522 0.000290073 0.000246286 8.755e-06 
0.000226653 0.000297457 0.000234416 1.1301e-05 
0.000209814 0.000291199 0.000228193 7.705e-06 
0.000292597 0.000311509 0.000251165 6.78e-06 
0.000276423 0.000269483 0.000206779 6.78e-06 
0.00027684 0.000297791 0.000260411 7.705e-06 
0.000224223 0.000280992 0.000214586 1.45885e-05 
0.000242395 0.000321672 0.00024112 1.45885e-05 
0.000242097 0.000286675 0.00023695 7.705e-06 
0.000272081 0.000281895 0.000215047 8.755e-06 
0.000227579 0.000325187 0.00022343 8.755e-06 
0.000290056 0.000281218 0.000209943 9.945e-06 
0.000291245 0.000289432 0.000226699 8.755e-06 
0.000239437 0.000272057 0.000229869 8.755e-06 
0.000259118 0.000305522 0.000239027 8.755e-06 
0.000274793 0.000299679 0.000209944 9.945e-06 
0.000291245 0.00028097 0.000260329 8.755e-06 
0.000252701 0.00027263 0.000212839 1.284e-05 
0.000259447 0.000330864 0.000252154 7.705e-06 
0.000270507 0.00029004 0.000233305 1.1301e-05 
0.000247708 0.000301378 0.000216574 1.6575e-05 
0.000263175 0.000345507 0.000235763 1.45885e-05 
0.000214059 0.00030834 0.000214587 1.45885e-05 
0.000290052 0.000316655 0.000209943 9.945e-06 
0.000267219 0.00031807 0.000209943 9.945e-06 
0.000279545 0.00033208 0.000208754 8.755e-06 
0.000213896 0.000338105 0.000212839 1.284e-05 
0.000247913 0.000332477 0.000214586 1.45885e-05 
0.000270485 0.000349793 0.0002113 1.1301e-05 
0.000292296 0.000342435 0.000207704 7.705e-06 
0.000288689 0.000326615 0.000228659 1.1301e-05 
0.000270162 0.000327566 0.000224525 7.705e-06 
0.000276882 0.000338103 0.000221114 5.25e-06 
0.000292295 0.00029929 0.000207705 7.705e-06 
0.000258655 0.00031903 0.000227249 6.78e-06 
0.000239911 0.000344589 0.000237441 8.755e-06 
0.000272912 0.000310287 0.000227337 9.945e-06 
0.00026427 0.000343246 0.000259955 7.705e-06 
0.000291246 0.000306921 0.000225864 8.755e-06 
0.0002887 0.000294658 0.000245894 1.1301e-05 
0.000266859 0.000322736 0.000239909 8.755e-06 
0.000254798 0.000279409 0.000232119 7.705e-06 
0.00028048 0.000311585 0.000243228 7.705e-06 
0.00023026 0.000320543 0.00020678 6.78e-06 
0.000267174 0.00031146 0.000254823 9.945e-06 
0.000269615 0.000267516 0.000231657 1.1301e-05 
0.000248073 0.000268412 0.000251246 1.45885e-05 
0.000261944 0.000287494 0.000205964 5.965e-06 
0.000283788 0.000330985 0.000253702 1.45885e-05 
0.000294035 0.000313609 0.000238677 5.965e-06 
0.000271286 0.000280812 0.000253922 1.1301e-05 
0.0002887 0.000348949 0.000225192 1.1301e-05 
0.000232168 0.000351403 0.000209944 9.945e-06 
0.000200871 0.000352623 0.000227151 1.1301e-05 
0.000243497 0.000352455 0.000223435 7.705e-06 
0.000292296 0.000349084 0.000243853 7.705e-06 
0.000228637 0.000352956 0.000251763 1.1301e-05 
0.000275975 0.00035535 0.000254665 9.945e-06 
0.000250516 0.00035493 0.000208754 8.755e-06 
0.000225385 0.000355949 0.000229557 1.1301e-05 
5.51769e-05 0.000355803 0.000208754 8.755e-06 
8.94572e-05 0.000409955 0.000240644 1.284e-05 
1.43754e-05 0.000386076 0.000235014 9.945e-06 
7.13961e-05 0.000407586 0.000226957 9.945e-06 
7.70437e-06 0.000372575 0.00022581 7.705e-06 
4.01176e-05 0.000380957 0.000228449 8.755e-06 
7.70474e-06 0.000393594 0.000220506 7.705e-06 
7.38545e-05 0.000362651 0.0002113 1.1301e-05 
8.75301e-06 0.000405219 0.000208754 8.755e-06 
6.77989e-06 0.000389066 0.000206779 6.78e-06 
7.38804e-05 0.000393445 0.000211299 1.1301e-05 
2.41872e-05 0.000415708 0.000209944 9.945e-06 
5.05037e-05 0.000404073 0.000214588 1.45885e-05 
8.95432e-05 0.000418518 0.000214587 1.45885e-05 
2.35733e-05 0.000378707 0.000217338 1.1301e-05 
1.36425e-05 0.000410217 0.000227551 1.1301e-05 
2.41532e-05 0.000396891 0.000208754 8.755e-06 
3.75039e-05 0.000387324 0.000207703 7.705e-06 
8.67926e-05 0.00037831 0.000208754 8.755e-06 
7.70394e-06 0.000374641 0.000207704 7.705e-06 
5.45025e-05 0.000376996 0.000212839 1.284e-05 
3.74568e-05 0.000362156 0.000209944 9.945e-06 
2.78019e-05 0.00036208 0.000244352 1.88315e-05 
3.0248e-05 0.000396711 0.00022643 9.945e-06 
6.13065e-05 0.000388997 0.000232649 1.1301e-05 
9.50272e-05 0.000361563 0.000209944 9.945e-06 
8.1707e-05 0.000380431 0.000228037 1.1301e-05 
3.34393e-05 0.00041243 0.00024261 1.284e-05 
4.06844e-05 0.00042443 0.000208754 8.755e-06 
9.50213e-05 0.00039506 0.000209944 9.945e-06 
6.52831e-05 0.000367002 0.000230246 9.945e-06 
7.70436e-06 0.000427392 0.000221987 7.705e-06 
4.30181e-05 0.000390509 0.000245843 1.1301e-05 
3.57487e-05 0.000417711 0.000221862 6.78e-06 
6.00729e-05 0.000409794 0.000248608 1.45885e-05 
7.70498e-06 0.000421611 0.000207704 7.705e-06 
7.48408e-05 0.000426306 0.000232728 9.945e-06 
6.38552e-05 0.000427967 0.000212837 1.284e-05 
9.15529e-05 0.000431961 0.000232256 7.705e-06 
7.2337e-05 0.000376174 0.000249874 1.284e-05 
2.65783e-05 0.000432246 0.000215624 7.705e-06 
9.94476e-06 0.00040161 0.00024662 9.945e-06 
1.45876e-05 0.000432352 0.000242601 1.45885e-05 
1.13006e-05 0.000442691 0.0002113 1.1301e-05 
8.13411e-05 0.000442216 0.000240096 8.755e-06 
7.85049e-05 0.000427266 0.000253633 1.1301e-05 
9.6773e-05 0.00039366 0.000228508 8.755e-06 
9.90461e-05 0.000432116 0.000251201 9.945e-06 
4.88904e-05 0.000442849 0.000239789 2.1395e-05 
3.93342e-05 0.000443041 0.000209944 9.945e-06 
9.31093e-05 0.000385884 0.000245114 9.945e-06 
0.000191922 0.00035652 0.00024923 1.284e-05 
0.000161495 0.000366922 0.00024579 8.755e-06 
0.000189504 0.000376434 0.000244262 7.705e-06 
0.000105751 0.000378313 0.000209944 9.945e-06 
0.000111395 0.000362892 0.000206779 6.78e-06 
0.000143086 0.00035602 0.000242577 1.284e-05 
0.000105302 0.000375682 0.00023102 1.1301e-05 
0.000176677 0.000370075 0.00020678 6.78e-06 
0.000121073 0.000381002 0.000244225 9.945e-06 
0.000192473 0.000361825 0.000209943 9.945e-06 
0.000156947 0.00040129 0.000252943 8.755e-06 
0.000191889 0.000391497 0.000242054 7.705e-06 
0.000147082 0.000358607 0.000205963 5.965e-06 
0.000178858 0.000406892 0.000254947 9.945e-06 
0.000187432 0.000388714 0.000225205 9.945e-06 
0.000156658 0.000377143 0.000232421 8.755e-06 
0.000177149 0.000366682 0.000228475 1.45885e-05 
0.000153424 0.000358464 0.000224249 7.705e-06 
0.000116142 0.000393813 0.000208754 8.755e-06 
0.000182219 0.000381523 0.000205965 5.965e-06 
0.000144675 0.000390608 0.000241215 1.1301e-05 
0.000160691 0.000365819 0.000209944 9.945e-06 
0.000171397 0.000390222 0.000241323 1.284e-05 
0.000132823 0.000374288 0.000218829 1.88315e-05 
0.000187408 0.000392799 0.000205965 5.965e-06 
0.00016533 0.000389456 0.000214587 1.45885e-05 
0.000175223 0.00041758 0.000230951 1.6575e-05 
0.000159736 0.000412886 0.000209943 9.945e-06 
0.000118483 0.000401742 0.000231378 1.45885e-05 
0.000144701 0.000400269 0.000222294 9.945e-06 
0.000131866 0.000401512 0.000208754 8.755e-06 
0.000144111 0.000392885 0.000205965 5.965e-06 
0.000137112 0.000425027 0.000216573 1.6575e-05 
0.000190882 0.000413494 0.000209943 9.945e-06 
0.000148871 0.000412986 0.000238794 1.1301e-05 
0.00016237 0.000417942 0.000252774 8.755e-06 
0.000117935 0.000364264 0.0002371 6.78e-06 
0.000108553 0.000358643 0.000219338 6.78e-06 
0.000110651 0.000410438 0.000208753 8.755e-06 
0.000197616 0.000381037 0.000209943 9.945e-06 
0.000166876 0.000431449 0.000209944 9.945e-06 
0.000114706 0.000419746 0.000220509 6.78e-06 
0.000186372 0.000386851 0.000258162 9.945e-06 
0.000196004 0.000421472 0.000251401 1.284e-05 
0.000107766 0.000425404 0.000234633 9.945e-06 
0.000142911 0.000423959 0.000255982 9.945e-06 
0.000104072 0.000398402 0.000246797 6.78e-06 
0.000129405 0.000421159 0.000241652 9.945e-06 
0.00010899 0.000413613 0.000249094 8.755e-06 
0.000156289 0.000432693 0.000229336 7.705e-06 
0.00016286 0.000437028 0.000246635 1.1301e-05 
0.000109663 0.000439646 0.000214587 1.45885e-05 
0.000142675 0.000435928 0.000240099 9.945e-06 
0.000122638 0.000436707 0.000233767 8.755e-06 
0.000192049 0.000439707 0.000242803 7.705e-06 
0.000180615 0.000441197 0.000232581 7.705e-06 
0.000294035 0.000358049 0.000254025 5.965e-06 
0.000253927 0.0003587 0.000256028 1.1301e-05 
0.000258327 0.000360256 0.00022108 6.78e-06 
0.000280481 0.000357684 0.000238729 6.78e-06 
0.000225811 0.000371956 0.000245998 8.755e-06 
0.000292294 0.000357866 0.000207705 7.705e-06 
0.00020612 0.000392406 0.000247895 7.705e-06 
0.000207989 0.000377073 0.000231818 1.45885e-05 
0.000289903 0.000372947 0.00025027 9.945e-06 
0.000250943 0.000388951 0.000253284 1.1301e-05 
0.000239357 0.000373018 0.000257043 8.755e-06 
0.000293222 0.000362237 0.000237861 6.78e-06 
0.000292295 0.000389655 0.00024511 7.705e-06 
0.000204128 0.000405953 0.000230296 1.45885e-05 
0.000246292 0.00037142 0.000234811 1.45885e-05 
0.0002394 0.000369931 0.000209944 9.945e-06 
0.000268875 0.000375231 0.000252267 1.1301e-05 
0.00022413 0.000376424 0.00020678 6.78e-06 
0.000213707 0.000362359 0.000211299 1.1301e-05 
0.000256095 0.000400246 0.000229 9.945e-06 
0.000230598 0.000384459 0.000221192 9.945e-06 
0.000227798 0.000395072 0.000243433 1.45885e-05 
0.000248867 0.000388902 0.000211299 1.1301e-05 
0.000277509 0.000423813 0.000254093 1.1301e-05 
0.000215249 0.000390238 0.000209944 9.945e-06 
0.000265014 0.000405668 0.000247505 1.1301e-05 
0.000199767 0.000398411 0.000207704 7.705e-06 
0.000278606 0.000379813 0.000221392 2.1395e-05 
0.000287161 0.000408337 0.000238279 1.284e-05 
0.000248568 0.000424085 0.000247034 1.284e-05 
0.00023755 0.000403055 0.000222386 9.945e-06 
0.000249533 0.000418726 0.000224911 9.945e-06 
0.000244482 0.000411277 0.000207705 7.705e-06 
0.000291245 0.000428617 0.000232085 8.755e-06 
0.000263171 0.000409626 0.0002113 1.1301e-05 
0.000221084 0.000410622 0.000211299 1.1301e-05 
0.000227447 0.000420726 0.000232623 1.284e-05 
0.000268571 0.000422927 0.000233353 1.1301e-05 
0.000261771 0.000433677 0.000212837 1.284e-05 
0.000287161 0.000411838 0.000212839 1.284e-05 
0.000287161 0.000437516 0.000212838 1.284e-05 
0.000236057 0.000428069 0.0002113 1.1301e-05 
0.000206565 0.000433825 0.000216573 1.6575e-05 
0.000216329 0.000414317 0.000249991 8.755e-06 
0.000291245 0.000436869 0.000247528 8.755e-06 
0.000213008 0.000436698 0.000243541 1.1301e-05 
0.000244643 0.000439453 0.000228836 1.1301e-05 
0.000225718 0.000440983 0.000229665 7.705e-06 
2.20064e-05 0.000448336 0.000227293 8.755e-06 
7.60764e-05 0.000459591 0.000244573 9.945e-06 
6.01463e-05 0.000469691 0.000251407 9.945e-06 
6.77975e-06 0.000453375 0.000225169 6.78e-06 
7.90174e-05 0.000479443 0.00025178 1.1301e-05 
8.75464e-06 0.000454862 0.000244645 8.755e-06 
2.60713e-05 0.000464066 0.00025397 1.284e-05 
8.66958e-05 0.000497545 0.00025573 8.755e-06 
8.75417e-06 0.000491423 0.000242944 8.755e-06 
2.62024e-05 0.000459684 0.000211299 1.1301e-05 
9.94454e-06 0.000479766 0.000257517 9.945e-06 
5.44602e-05 0.000488737 0.000251813 8.755e-06 
7.70359e-06 0.000462141 0.000207704 7.705e-06 
6.6668e-05 0.000474467 0.000230105 1.284e-05 
8.75462e-06 0.000478533 0.000208754 8.755e-06 
2.40157e-05 0.000483465 0.000247525 7.705e-06 
5.96453e-06 0.000498136 0.000223704 5.965e-06 
5.70021e-05 0.000449045 0.000208754 8.755e-06 
1.4587e-05 0.000472525 0.000230543 1.45885e-05 
8.09566e-05 0.000451606 0.000216574 1.6575e-05 
6.93932e-05 0.00047274 0.000208753 8.755e-06 
4.86138e-05 0.00046852 0.000212839 1.284e-05 
3.7221e-05 0.000491431 0.000253277 8.755e-06 
2.88681e-05 0.000482322 0.0002113 1.1301e-05 
1.38789e-05 0.000490215 0.000217619 6.78e-06 
9.2468e-05 0.000488523 0.000241684 7.705e-06 
8.46157e-05 0.000492097 0.000227666 8.755e-06 
4.25323e-05 0.000476467 0.000238641 1.284e-05 
8.08814e-05 0.000487445 0.000209944 9.945e-06 
5.53786e-05 0.000498017 0.000216573 1.6575e-05 
6.77959e-06 0.000494209 0.000206779 6.78e-06 
7.02422e-05 0.000499648 0.000241903 1.284e-05 
4.72312e-05 0.000509637 0.000247393 1.284e-05 
2.78371e-05 0.0004985 0.000231515 1.45885e-05 
5.96492e-06 0.000517731 0.000242377 5.965e-06 
8.34529e-05 0.000511397 0.000214587 1.45885e-05 
8.0161e-05 0.00051967 0.000237447 9.945e-06 
3.16231e-05 0.000502023 0.000208753 8.755e-06 
6.29417e-05 0.000520892 0.000208754 8.755e-06 
7.70495e-06 0.0005085 0.000232446 7.705e-06 
1.28385e-05 0.000511859 0.000212838 1.284e-05 
3.19346e-05 0.000527363 0.000230361 1.45885e-05 
4.41773e-05 0.000521311 0.000209944 9.945e-06 
8.75394e-06 0.000524698 0.000229714 8.755e-06 
9.02848e-05 0.000471294 0.000233964 1.1301e-05 
5.91524e-05 0.000524028 0.00022978 1.284e-05 
9.68058e-05 0.000507021 0.000241231 1.1301e-05 
5.39265e-05 0.000525884 0.000258037 7.705e-06 
9.88794e-05 0.000532491 0.000227743 1.284e-05 
0.000100862 0.000456928 0.000205965 5.965e-06 
0.00010678 0.000466149 0.000246325 9.945e-06 
0.00010034 0.000448064 0.000237224 1.1301e-05 
0.000111033 0.000506273 0.00025381 7.705e-06 
0.000177977 0.000458303 0.000224041 6.78e-06 
0.000165795 0.000446874 0.000224859 9.945e-06 
0.000182135 0.000446168 0.0002113 1.1301e-05 
0.000121819 0.000449686 0.000251006 1.284e-05 
0.000122839 0.00045529 0.000228134 9.945e-06 
0.000152718 0.000445417 0.000209944 9.945e-06 
0.000152865 0.000449996 0.000236459 7.705e-06 
0.000103523 0.000461408 0.000222596 8.755e-06 
0.000170785 0.000461522 0.000243902 1.45885e-05 
0.000106532 0.000511584 0.000222903 9.945e-06 
0.000140058 0.000448239 0.00022627 8.755e-06 
0.000151488 0.00047457 0.000242403 8.755e-06 
0.000171428 0.000464468 0.000209942 9.945e-06 
0.000138307 0.000460867 0.000239949 9.945e-06 
0.000103028 0.000507071 0.00020678 6.78e-06 
0.000136203 0.0004565 0.000209944 9.945e-06 
0.000163863 0.000479552 0.000232763 7.705e-06 
0.000126906 0.000486699 0.000245499 1.88315e-05 
0.000152701 0.000465415 0.000222883 1.284e-05 
0.000116668 0.000518385 0.000240292 1.1301e-05 
0.000130716 0.0004721 0.000220995 9.945e-06 
0.000154496 0.000492665 0.000236115 8.755e-06 
0.000171887 0.000489688 0.00024295 8.755e-06 
0.000171879 0.000483536 0.00020678 6.78e-06 
0.000117245 0.00046251 0.000209943 9.945e-06 
0.000130597 0.000486235 0.000208754 8.755e-06 
0.000142209 0.000474501 0.000207705 7.705e-06 
0.000158536 0.000477974 0.000207705 7.705e-06 
0.000189339 0.00049938 0.000244879 1.1301e-05 
0.000163745 0.000490289 0.000220288 8.755e-06 
0.000153377 0.000492538 0.000207704 7.705e-06 
0.000106508 0.000485833 0.000216573 1.6575e-05 
0.000171027 0.000498005 0.000207704 7.705e-06 
0.000138899 0.000504314 0.000211299 1.1301e-05 
0.00013939 0.000515625 0.000232619 1.284e-05 
0.000121036 0.000515734 0.000209943 9.945e-06 
0.000123476 0.000503769 0.000224104 8.755e-06 
0.000161309 0.000516852 0.000214587 1.45885e-05 
0.000193243 0.00049914 0.000208753 8.755e-06 
0.000180498 0.000504499 0.000219495 8.755e-06 
0.000183887 0.000517907 0.000208754 8.755e-06 
0.000178563 0.000518297 0.000231966 9.945e-06 
0.000144341 0.000486573 0.000221642 9.945e-06 
0.000198716 0.000524972 0.000207704 7.705e-06 
0.000168193 0.000502691 0.00023182 8.755e-06 
0.000186699 0.00048047 0.000224568 1.6575e-05 
0.000171426 0.000510162 0.000248654 9.945e-06 
0.000151981 0.000505995 0.000248986 9.945e-06 
0.00019405 0.0004621 0.000208754 8.755e-06 
0.00019424 0.000454336 0.000230871 1.1301e-05 
0.000103913 0.000523526 0.000208754 8.755e-06 
0.00019369 0.000471852 0.00025014 1.1301e-05 
0.000118137 0.000526851 0.00022334 7.705e-06 
0.00013819 0.000531956 0.000212839 1.284e-05 
0.000205056 0.000517728 0.000230974 1.6575e-05 
0.000204797 0.000510814 0.000207703 7.705e-06 
0.00026594 0.000445877 0.000240363 1.284e-05 
0.000271836 0.000452989 0.000219536 9.945e-06 
0.000288699 0.000450557 0.000233093 1.1301e-05 
0.000231338 0.000451694 0.000212839 1.284e-05 
0.000232324 0.000456467 0.00024716 1.6575e-05 
0.000207042 0.000457475 0.000245986 8.755e-06 
0.00028716 0.000461543 0.000254534 1.284e-05 
0.000253724 0.000454794 0.000209943 9.945e-06 
0.000273106 0.000466021 0.000207703 7.705e-06 
0.000206123 0.000466151 0.000221906 7.705e-06 
0.000290056 0.000459929 0.000209944 9.945e-06 
0.000210948 0.000457514 0.000208753 8.755e-06 
0.000216047 0.000454435 0.000227838 8.755e-06 
0.000252876 0.00046303 0.000229508 1.1301e-05 
0.000213642 0.000477076 0.000237595 1.284e-05 
0.000259248 0.000471609 0.000253087 1.45885e-05 
0.000293221 0.000476048 0.000206778 6.78e-06 
0.00028117 0.000479461 0.000229115 1.88315e-05 
0.000236163 0.000469038 0.00022274 7.705e-06 
0.000288699 0.000487605 0.000257131 1.1301e-05 
0.000239422 0.000469914 0.000207704 7.705e-06 
0.000230462 0.00048804 0.000253603 1.284e-05 
0.000241134 0.000477697 0.000236521 8.755e-06 
0.00025716 0.000475716 0.0002113 1.1301e-05 
0.000248926 0.000488922 0.00026018 6.78e-06 
0.000210367 0.00049746 0.000247231 9.945e-06 
0.000292296 0.000499386 0.000242657 7.705e-06 
0.000220427 0.00047778 0.000212838 1.284e-05 
0.000292295 0.000490503 0.000207704 7.705e-06 
0.000266239 0.000494876 0.000209944 9.945e-06 
0.000253899 0.000499317 0.000239866 1.6575e-05 
0.000228219 0.0005055 0.00023512 9.945e-06 
0.000232247 0.000489242 0.000226809 8.755e-06 
0.000240291 0.000488558 0.000209943 9.945e-06 
0.000280648 0.000511099 0.000230442 1.284e-05 
0.000290055 0.000507866 0.000209944 9.945e-06 
0.000224467 0.000512858 0.000256354 1.284e-05 
0.000271181 0.000514142 0.000209943 9.945e-06 
0.000206282 0.000492314 0.000216121 7.705e-06 
0.000262422 0.000523473 0.000246727 9.945e-06 
0.000261946 0.000525488 0.000225349 1.1301e-05 
0.000291245 0.000515765 0.00024867 8.755e-06 
0.000239623 0.000526976 0.000238375 1.45885e-05 
0.000233574 0.000516241 0.000221926 5.965e-06 
0.000248237 0.000516812 0.000258975 9.945e-06 
0.000248671 0.000509676 0.000212838 1.284e-05 
0.000223259 0.00050341 0.000212839 1.284e-05 
0.000233813 0.000526705 0.000209944 9.945e-06 
0.000286524 0.000528775 0.0002113 1.1301e-05 
6.60133e-05 0.000534723 0.000248693 9.945e-06 
2.10491e-05 0.000543127 0.000247774 1.1301e-05 
4.41564e-05 0.000539779 0.00024951 1.1301e-05 
8.05104e-05 0.000538365 0.000237457 8.755e-06 
1.28398e-05 0.000537537 0.000212838 1.284e-05 
9.72668e-05 0.00053902 0.000207705 7.705e-06 
7.58792e-05 0.000539572 0.000214587 1.45885e-05 
4.67042e-05 0.000545309 0.000228191 8.755e-06 
8.75433e-06 0.00054614 0.000232219 8.755e-06 
3.59307e-05 0.000544416 0.000211299 1.1301e-05 
3.15131e-05 0.000549502 0.000232942 7.705e-06 
5.89847e-05 0.000550229 0.000240959 8.755e-06 
7.26008e-05 0.000550891 0.000232786 6.78e-06 
6.11274e-05 0.00055045 0.000225575 6.78e-06 
7.73582e-05 0.000554485 0.000251477 1.284e-05 
9.10655e-05 0.000556857 0.000229892 1.284e-05 
8.9139e-05 0.000554396 0.000206779 6.78e-06 
5.55397e-05 0.000552477 0.000209943 9.945e-06 
8.75481e-06 0.000559816 0.000243153 8.755e-06 
3.6152e-05 0.00056648 0.000249668 1.6575e-05 
7.25595e-05 0.000560544 0.000207705 7.705e-06 
7.36471e-05 0.000574964 0.000257234 8.755e-06 
8.74431e-05 0.000571819 0.000211298 1.1301e-05 
9.15977e-05 0.000576848 0.000238041 8.755e-06 
5.9908e-05 0.000581683 0.000206779 6.78e-06 
6.49576e-05 0.000575273 0.000231054 1.88315e-05 
8.32961e-05 0.000587916 0.000218413 6.78e-06 
1.88299e-05 0.000568053 0.000218829 1.88315e-05 
6.28565e-05 0.000597067 0.000252335 9.945e-06 
7.70491e-06 0.000575162 0.000249009 7.705e-06 
4.61289e-05 0.000569998 0.000209943 9.945e-06 
8.29856e-05 0.000590915 0.000249449 1.1301e-05 
6.73493e-05 0.000596322 0.000209944 9.945e-06 
9.51953e-05 0.000611353 0.00023928 1.45885e-05 
1.00163e-05 0.000590751 0.000257067 9.945e-06 
3.93764e-05 0.000598039 0.000240046 1.6575e-05 
8.76714e-05 0.000606211 0.000212839 1.284e-05 
2.8832e-05 0.000587259 0.000205965 5.965e-06 
6.7303e-05 0.000608636 0.000231163 1.45885e-05 
1.65736e-05 0.000603314 0.000216573 1.6575e-05 
4.52014e-05 0.000591179 0.0002113 1.1301e-05 
9.94435e-06 0.000588213 0.00023734 9.945e-06 
1.45425e-05 0.000606145 0.000244612 9.945e-06 
4.45727e-05 0.00061685 0.000214587 1.45885e-05 
9.94381e-06 0.000622261 0.000233901 9.945e-06 
6.84072e-05 0.000615073 0.000208753 8.755e-06 
7.67218e-05 0.000616931 0.000248457 6.78e-06 
0.000160097 0.000533547 0.000243354 1.6575e-05 
0.00010132 0.000586403 0.000247266 7.705e-06 
0.00015811 0.000539226 0.000208754 8.755e-06 
0.000183536 0.000543678 0.000218829 1.88315e-05 
0.000116476 0.000538222 0.000209944 9.945e-06 
0.00015852 0.000560109 0.000229858 1.284e-05 
0.000177954 0.000549985 0.000243993 7.705e-06 
0.000144086 0.000552021 0.00020678 6.78e-06 
0.000126016 0.000549807 0.000239392 2.1395e-05 
0.000161258 0.000556449 0.000208753 8.755e-06 
0.000153591 0.000557766 0.000251979 9.945e-06 
0.000106462 0.00055691 0.0002113 1.1301e-05 
0.000193778 0.000567228 0.000208754 8.755e-06 
0.000174264 0.00056723 0.000244709 9.945e-06 
0.000146432 0.000569713 0.000211299 1.1301e-05 
0.000127368 0.000560438 0.000209943 9.945e-06 
0.000193985 0.000578047 0.000248702 7.705e-06 
0.000189533 0.000573463 0.000228989 1.284e-05 
0.000169717 0.000575893 0.000212839 1.284e-05 
0.000150271 0.000584056 0.000253026 1.6575e-05 
0.00016908 0.000583394 0.000234343 9.945e-06 
0.000152816 0.000599371 0.000236404 5.965e-06 
0.000140426 0.000587436 0.000207705 7.705e-06 
0.000114628 0.000586918 0.000221392 2.1395e-05 
0.000147058 0.000587264 0.000225524 1.1301e-05 
0.000132786 0.000598894 0.000242269 8.755e-06 
0.000190099 0.000595245 0.000223853 6.78e-06 
0.000155007 0.000588271 0.00020678 6.78e-06 
0.000184751 0.000589984 0.00024213 8.755e-06 
0.000139108 0.000606095 0.0002113 1.1301e-05 
0.000168244 0.000607616 0.00021883 1.88315e-05 
0.000142705 0.000610726 0.00023172 9.945e-06 
0.000116419 0.000604298 0.000245963 8.755e-06 
0.00019277 0.000615226 0.000208754 8.755e-06 
0.000188472 0.000601292 0.000205963 5.965e-06 
0.000189951 0.00058596 0.000209943 9.945e-06 
0.000107628 0.00061338 0.000208754 8.755e-06 
0.000123289 0.000615007 0.00023226 9.945e-06 
0.000131881 0.000619641 0.000254767 1.45885e-05 
0.000107236 0.000621131 0.000223268 7.705e-06 
0.000212152 0.000619702 0.0002113 1.1301e-05 
0.000275251 0.000623352 0.00023345 9.945e-06 
0.000291245 0.000611867 0.000237057 8.755e-06 
0.00023476 0.000611383 0.000212839 1.284e-05 
0.000211375 0.000603987 0.000240122 2.1395e-05 
0.000203836 0.0006002 0.000209942 9.945e-06 
0.000284974 0.000611044 0.000214587 1.45885e-05 
0.000222324 0.000597464 0.00020678 6.78e-06 
0.000256922 0.000606952 0.000209944 9.945e-06 
0.000247221 0.000600896 0.000239581 1.45885e-05 
0.000265778 0.000607088 0.00022521 7.705e-06 
0.000214636 0.00057867 0.000214587 1.45885e-05 
0.000274822 0.000605459 0.000238865 8.755e-06 
0.0002887 0.000592548 0.000232314 1.1301e-05 
0.00024502 0.000586007 0.000214587 1.45885e-05 
0.000270127 0.000593763 0.000208755 8.755e-06 
0.000229563 0.000583436 0.000230444 7.705e-06 
0.000263516 0.000583375 0.000247423 8.755e-06 
0.000293221 0.000592945 0.000206779 6.78e-06 
0.000266859 0.000588365 0.000228288 1.1301e-05 
0.000292296 0.000578521 0.000207704 7.705e-06 
0.000220313 0.000569514 0.000236627 9.945e-06 
0.00026836 0.000573535 0.000211299 1.1301e-05 
0.000292296 0.000576287 0.000241472 7.705e-06 
0.000274359 0.000566467 0.000239491 1.284e-05 
0.000242772 0.000572771 0.000245945 1.45885e-05 
0.000218018 0.000533143 0.000248227 9.945e-06 
0.000290056 0.000572922 0.000224291 9.945e-06 
0.000214363 0.000535143 0.0002113 1.1301e-05 
0.000220749 0.00053625 0.000230563 7.705e-06 
0.000205475 0.000576438 0.000240031 6.78e-06 
0.000256891 0.000570594 0.000227485 8.755e-06 
0.000283426 0.000538513 0.000240733 1.6575e-05 
0.00028556 0.000563541 0.000208753 8.755e-06 
0.000257555 0.000543517 0.000235694 9.945e-06 
0.00025919 0.000554391 0.000253873 1.1301e-05 
0.000208248 0.000555444 0.000209944 9.945e-06 
0.00029322 0.000561305 0.000235899 6.78e-06 
0.000292295 0.000546524 0.000207705 7.705e-06 
0.00026928 0.000547863 0.000214587 1.45885e-05 
0.000211755 0.000547638 0.000225381 7.705e-06 
0.000291246 0.000554037 0.000222312 8.755e-06 
0.000226345 0.000549341 0.000243988 8.755e-06 
0.00023669 0.000553923 0.000218829 1.88315e-05 
0.000201688 0.000554021 0.000247414 1.6575e-05 
0.000260891 0.000620809 0.000248899 1.1301e-05 
9.5638e-05 0.000704659 0.000224434 6.78e-06 
9.70368e-05 0.00065382 0.000216572 1.6575e-05 
8.75282e-06 0.000648403 0.000208753 8.755e-06 
7.6813e-05 0.000624167 0.00021671 5.965e-06 
6.47658e-05 0.00067706 0.000232017 6.78e-06 
2.81095e-05 0.000698095 0.000209943 9.945e-06 
1.17156e-05 0.000686835 0.000209945 9.945e-06 
9.94458e-06 0.000698623 0.000225868 9.945e-06 
9.94448e-06 0.000667026 0.000209943 9.945e-06 
5.45842e-05 0.00068324 0.000222044 8.755e-06 
5.24761e-05 0.000710556 0.00021883 1.88315e-05 
4.02836e-05 0.00068835 0.000235145 1.1301e-05 
7.7049e-06 0.000681117 0.000226154 7.705e-06 
6.49615e-05 0.000691479 0.000226579 5.25e-06 
3.28532e-05 0.000674478 0.000214587 1.45885e-05 
7.65637e-05 0.000680748 0.000214587 1.45885e-05 
7.91013e-05 0.000699908 0.000234079 1.284e-05 
5.53042e-05 0.000671865 0.000208754 8.755e-06 
6.77991e-06 0.000688342 0.000238675 6.78e-06 
1.28388e-05 0.000662102 0.000231998 1.284e-05 
8.58331e-05 0.000671096 0.000245374 1.88315e-05 
6.78775e-05 0.000654791 0.000212839 1.284e-05 
4.40328e-05 0.00065136 0.000211299 1.1301e-05 
4.99263e-05 0.000666738 0.000232445 1.1301e-05 
6.26139e-05 0.000632813 0.000209944 9.945e-06 
3.4932e-05 0.000656266 0.000227276 7.705e-06 
5.87212e-05 0.000659937 0.000252322 1.1301e-05 
2.4849e-05 0.000637254 0.000221457 1.45885e-05 
3.29078e-05 0.000659274 0.000250477 1.45885e-05 
8.36947e-05 0.000638158 0.000239976 1.45885e-05 
8.10332e-05 0.00063581 0.000208754 8.755e-06 
7.47123e-05 0.000649433 0.000258336 8.755e-06 
5.30011e-05 0.000639124 0.000234685 1.6575e-05 
8.75356e-06 0.000626101 0.000208753 8.755e-06 
1.28586e-05 0.000640965 0.000246581 1.284e-05 
6.82528e-05 0.000625056 0.000243488 5.965e-06 
9.03036e-05 0.000625903 0.000218072 7.705e-06 
3.08743e-05 0.000624408 0.00024311 1.1301e-05 
9.68159e-05 0.000706515 0.000246795 9.945e-06 
3.37905e-05 0.00070985 0.000239112 8.755e-06 
2.746e-05 0.00070009 0.000227468 7.705e-06 
8.33739e-05 0.000706658 0.0002113 1.1301e-05 
0.000103071 0.000630495 0.000208754 8.755e-06 
0.000102137 0.000650282 0.000243111 7.705e-06 
9.96798e-05 0.00063298 0.000226776 6.78e-06 
0.000198734 0.000629418 0.000253376 9.945e-06 
0.000198602 0.000658671 0.000226853 1.284e-05 
0.000189958 0.000666666 0.000208753 8.755e-06 
0.000142275 0.00070587 0.000243661 9.945e-06 
0.000193128 0.00069478 0.000228706 1.284e-05 
0.000190846 0.000669737 0.000245262 9.945e-06 
0.00012827 0.000668582 0.000247231 1.45885e-05 
0.00017638 0.000700776 0.000240948 8.755e-06 
0.000133377 0.000691542 0.000254202 9.945e-06 
0.000119509 0.000707018 0.000246918 1.1301e-05 
0.000158463 0.000703753 0.000232301 9.945e-06 
0.000181506 0.00070391 0.000208754 8.755e-06 
0.000165345 0.000683087 0.000221423 6.78e-06 
0.000180295 0.000684055 0.000211299 1.1301e-05 
0.000160036 0.000681943 0.000207705 7.705e-06 
0.000161561 0.000702927 0.000211299 1.1301e-05 
0.000142856 0.000704893 0.000224139 7.705e-06 
0.000149441 0.000688205 0.000220666 9.945e-06 
0.000129581 0.000691178 0.000231739 1.284e-05 
0.000124002 0.000679612 0.000211299 1.1301e-05 
0.000135468 0.000697445 0.000209944 9.945e-06 
0.000144057 0.000672342 0.000209944 9.945e-06 
0.000110889 0.000674572 0.000229003 1.1301e-05 
0.000160738 0.000678675 0.000246227 1.88315e-05 
0.000183957 0.000674481 0.000228538 8.755e-06 
0.000115318 0.000654276 0.000234098 8.755e-06 
0.000128132 0.000654267 0.000214587 1.45885e-05 
0.000144936 0.000659535 0.000231666 9.945e-06 
0.000144268 0.000651568 0.000248571 8.755e-06 
0.000114916 0.000640144 0.00022567 7.705e-06 
0.000166727 0.000660283 0.000216573 1.6575e-05 
0.000102227 0.000690269 0.000212838 1.284e-05 
0.000111692 0.000629511 0.000239383 9.945e-06 
0.000107266 0.000694789 0.000234593 9.945e-06 
0.000110497 0.000686234 0.000253769 1.1301e-05 
0.000163015 0.000646952 0.00024077 1.1301e-05 
0.000148517 0.000644508 0.000208754 8.755e-06 
0.000185519 0.000645801 0.000242536 1.1301e-05 
0.000188557 0.000646764 0.000209944 9.945e-06 
0.000141617 0.000635232 0.000232109 1.45885e-05 
0.000151366 0.000637066 0.000252074 7.705e-06 
0.00017732 0.000637414 0.000224822 9.945e-06 
0.000164401 0.000634713 0.000209944 9.945e-06 
0.00018223 0.000629207 0.000208753 8.755e-06 
0.000123969 0.000626899 0.000212838 1.284e-05 
0.000195803 0.000628535 0.000221597 9.945e-06 
0.000162438 0.00062448 0.000243116 1.1301e-05 
0.000146548 0.000625948 0.000209943 9.945e-06 
0.000184587 0.00062315 0.000238818 1.1301e-05 
0.000198743 0.00070084 0.000208754 8.755e-06 
0.000175652 0.000710745 0.000225144 9.945e-06 
0.00020674 0.000709459 0.000224087 7.705e-06 
0.000202445 0.000648436 0.000252966 8.755e-06 
0.000224103 0.000701988 0.000229493 7.705e-06 
0.00028716 0.000710354 0.000255219 1.284e-05 
0.000285147 0.00066158 0.000238549 1.284e-05 
0.000269426 0.000657905 0.000251255 7.705e-06 
0.000292295 0.000653949 0.000256234 7.705e-06 
0.000250552 0.000687939 0.000230487 1.1301e-05 
0.000264826 0.000696454 0.000208755 8.755e-06 
0.000287161 0.000700087 0.000212839 1.284e-05 
0.000241766 0.000683191 0.000209944 9.945e-06 
0.000291246 0.000679281 0.000208753 8.755e-06 
0.000243735 0.000707199 0.000214587 1.45885e-05 
0.000292296 0.000674818 0.00022456 7.705e-06 
0.000282323 0.000689746 0.000237777 1.45885e-05 
0.000223116 0.00068254 0.000208754 8.755e-06 
0.000218606 0.000701914 0.0002113 1.1301e-05 
0.000238816 0.000662808 0.000233259 1.6575e-05 
0.000203252 0.000681464 0.0002113 1.1301e-05 
0.00026839 0.000671653 0.000216573 1.6575e-05 
0.000244906 0.000664797 0.000208754 8.755e-06 
0.000218488 0.000674373 0.000223534 8.755e-06 
0.000226255 0.000664146 0.000209943 9.945e-06 
0.00026223 0.000673779 0.000243676 1.1301e-05 
0.000215081 0.000688572 0.000221677 5.965e-06 
0.000209865 0.000655224 0.000208754 8.755e-06 
0.000230329 0.000690635 0.000221138 7.705e-06 
0.000292296 0.000662891 0.000207704 7.705e-06 
0.000213632 0.000663161 0.000245203 1.1301e-05 
0.000254498 0.000645887 0.000212839 1.284e-05 
0.000263935 0.000650786 0.000234511 1.1301e-05 
0.000227745 0.000640104 0.000214587 1.45885e-05 
0.000251815 0.000648681 0.000253471 1.1301e-05 
0.00024396 0.000640531 0.000228496 6.78e-06 
0.000291245 0.00064097 0.000240639 8.755e-06 
0.000292295 0.000638553 0.000256887 7.705e-06 
0.000283427 0.000642104 0.000216574 1.6575e-05 
0.000210732 0.000637966 0.000235995 1.284e-05 
0.000205211 0.000638344 0.000208754 8.755e-06 
0.000235408 0.000630285 0.000245183 1.45885e-05 
0.00025552 0.000636149 0.000240977 6.78e-06 
0.000245319 0.00062824 0.000207704 7.705e-06 
0.000274197 0.000637431 0.00024746 9.945e-06 
0.000294035 0.000624976 0.000226679 5.965e-06 
0.000205193 0.0006778 0.000234401 8.755e-06 
0.000253763 0.000623739 0.000225883 1.284e-05 
0.000266883 0.000624591 0.000208753 8.755e-06 
0.000288422 0.000625301 0.000247926 8.755e-06 
0.000263129 0.000706515 0.000233237 1.1301e-05 
9.31049e-05 0.000725938 0.00020678 6.78e-06 
8.82439e-05 0.000791246 0.000208754 8.755e-06 
9.98859e-05 0.000736423 0.000235208 7.705e-06 
8.81031e-05 0.000752563 0.00023033 1.284e-05 
7.386e-05 0.000765495 0.000226479 6.78e-06 
4.75106e-05 0.000765802 0.000249931 9.945e-06 
8.19133e-05 0.000759085 0.000249963 8.755e-06 
8.24269e-05 0.000785412 0.000234066 1.45885e-05 
5.00817e-05 0.000743927 0.000216574 7.705e-06 
2.78285e-05 0.000783426 0.000252232 1.6575e-05 
9.94438e-06 0.000764682 0.000257897 9.945e-06 
8.00653e-05 0.000773112 0.0002113 1.1301e-05 
6.77975e-06 0.000793221 0.000224035 6.78e-06 
6.93299e-05 0.000751545 0.000212839 1.284e-05 
2.40548e-05 0.000794016 0.000205965 5.965e-06 
7.11423e-05 0.00079321 0.00020678 6.78e-06 
1.70212e-05 0.000771718 0.000212838 1.284e-05 
6.18603e-05 0.00078716 0.000252128 1.284e-05 
4.94458e-05 0.000778606 0.000221392 2.1395e-05 
8.75483e-06 0.000791245 0.000208754 8.755e-06 
9.61939e-05 0.000758732 0.000209944 9.945e-06 
2.20872e-05 0.000791246 0.000220538 8.755e-06 
5.0916e-05 0.000754564 0.000206779 6.78e-06 
8.76484e-05 0.000743404 0.000207705 7.705e-06 
2.17375e-05 0.000754685 0.00023635 1.6575e-05 
1.12991e-05 0.000748318 0.0002113 1.1301e-05 
6.91633e-05 0.000767264 0.00024118 8.755e-06 
9.94386e-06 0.000779494 0.000233051 9.945e-06 
3.9954e-05 0.000732975 0.000208754 8.755e-06 
5.76006e-05 0.000747365 0.000237277 1.45885e-05 
3.36242e-05 0.000751834 0.000211299 1.1301e-05 
9.24728e-05 0.000733702 0.000220766 8.755e-06 
5.78823e-05 0.000734033 0.000207704 7.705e-06 
1.28611e-05 0.00071231 0.000243852 1.284e-05 
7.56402e-05 0.000728294 0.000211299 1.1301e-05 
7.70457e-06 0.000735023 0.000233904 7.705e-06 
3.82929e-05 0.000736125 0.00022714 9.945e-06 
1.8546e-05 0.000721924 0.000216574 1.6575e-05 
7.67071e-05 0.000732906 0.000232011 9.945e-06 
9.1528e-05 0.000718914 0.00023217 9.945e-06 
7.61664e-05 0.000717416 0.00022573 6.78e-06 
0.000196442 0.00074278 0.000208754 8.755e-06 
0.000194908 0.000757151 0.000205965 5.965e-06 
0.000194607 0.000721637 0.000212839 1.284e-05 
0.000155418 0.000778039 0.000223664 6.78e-06 
0.000189873 0.000768132 0.000245169 9.945e-06 
0.000157942 0.000736156 0.000240697 5.965e-06 
0.000197926 0.000791238 0.000208754 8.755e-06 
0.0001876 0.00074344 0.000243437 9.945e-06 
0.000177435 0.00078249 0.000251504 9.945e-06 
0.000188618 0.000757133 0.000225254 1.284e-05 
0.000154682 0.000748455 0.000233296 8.755e-06 
0.000149281 0.000794751 0.000245566 5.25e-06 
0.000182423 0.000775623 0.000209944 9.945e-06 
0.000147043 0.000762777 0.000250071 1.45885e-05 
0.000121566 0.000762247 0.000238216 9.945e-06 
0.000180155 0.000744916 0.000207704 7.705e-06 
0.000142306 0.000794035 0.000236815 5.965e-06 
0.000128548 0.000727628 0.000244833 1.1301e-05 
0.000132357 0.000771643 0.000206779 6.78e-06 
0.000181442 0.000787161 0.000229566 1.284e-05 
0.00016982 0.000767822 0.000238158 1.1301e-05 
0.000146179 0.000780511 0.000209944 9.945e-06 
0.000182356 0.000759202 0.000206778 6.78e-06 
0.000133233 0.000792296 0.000207704 7.705e-06 
0.000161495 0.000787213 0.000240582 9.945e-06 
0.000153717 0.000792296 0.000225577 7.705e-06 
0.00013862 0.000769683 0.000226586 1.1301e-05 
0.000138657 0.000756479 0.000209944 9.945e-06 
0.000162483 0.000760031 0.000214587 1.45885e-05 
0.000182646 0.00079322 0.000206779 6.78e-06 
0.000165734 0.0007887 0.0002113 1.1301e-05 
0.00013754 0.000790145 0.000223443 8.755e-06 
0.000111865 0.00078117 0.000218829 1.88315e-05 
0.00012575 0.000741888 0.000208755 8.755e-06 
0.000133734 0.000745251 0.000229148 1.284e-05 
0.000128023 0.000792296 0.000236699 7.705e-06 
0.000149147 0.000738054 0.000211301 1.1301e-05 
0.000158587 0.000723312 0.000206779 6.78e-06 
0.000120491 0.000780076 0.000246966 9.945e-06 
0.000103743 0.000739635 0.000208753 8.755e-06 
0.000172388 0.000735041 0.000226119 1.45885e-05 
0.000111145 0.000751372 0.000223231 1.1301e-05 
0.000121213 0.000758946 0.000207705 7.705e-06 
0.000108256 0.000725727 0.000242545 7.705e-06 
0.000147794 0.000723825 0.000230767 1.284e-05 
0.000116993 0.000717639 0.00021883 1.88315e-05 
0.000115212 0.000737843 0.000235944 7.705e-06 
0.000155955 0.00072553 0.000250687 8.755e-06 
0.000144261 0.000715285 0.000209943 9.945e-06 
0.000192872 0.000719708 0.000240143 1.45885e-05 
0.000173512 0.000719486 0.000208753 8.755e-06 
0.000167939 0.000717449 0.000240804 8.755e-06 
0.00010078 0.000768713 0.000245754 1.284e-05 
0.000199324 0.000775102 0.000230616 8.755e-06 
0.000199763 0.000738438 0.000225388 8.755e-06 
0.000225221 0.000782698 0.000226584 6.78e-06 
0.000206892 0.000775907 0.000246385 8.755e-06 
0.000231986 0.000793221 0.000221356 6.78e-06 
0.000246844 0.00079322 0.000258945 6.78e-06 
0.000215625 0.000772954 0.000231357 7.705e-06 
0.000228711 0.000757602 0.000252841 9.945e-06 
0.000216479 0.000790055 0.000238797 9.945e-06 
0.000208944 0.000756927 0.00022228 7.705e-06 
0.000234307 0.000754356 0.000233028 7.705e-06 
0.000205728 0.000760577 0.000238004 8.755e-06 
0.000213001 0.000748471 0.000208754 8.755e-06 
0.000220908 0.000746761 0.00022722 8.755e-06 
0.000203186 0.000771333 0.0002113 1.1301e-05 
0.0002887 0.000788701 0.000248502 1.1301e-05 
0.000237986 0.00079322 0.000233516 6.78e-06 
0.000256181 0.000791246 0.000246687 8.755e-06 
0.000292297 0.000792295 0.000207705 7.705e-06 
0.000233997 0.00077257 0.00023872 1.1301e-05 
0.000217656 0.0007887 0.000211299 1.1301e-05 
0.000270423 0.000783756 0.000250149 7.705e-06 
0.000236733 0.000792295 0.000207704 7.705e-06 
0.000258502 0.000774631 0.000246677 7.705e-06 
0.000276889 0.000792296 0.000207703 7.705e-06 
0.000290055 0.000778276 0.00021819 9.945e-06 
0.000281379 0.000791246 0.000228494 8.755e-06 
0.000261185 0.000742485 0.00020678 6.78e-06 
0.000247742 0.000761912 0.000206777 6.78e-06 
0.000293219 0.000745767 0.00020678 6.78e-06 
0.000292296 0.000764258 0.000207704 7.705e-06 
0.000228136 0.000765258 0.000214587 1.45885e-05 
0.000256812 0.00078117 0.000221015 1.88315e-05 
0.000244965 0.000769158 0.000256593 9.945e-06 
0.000277105 0.00077449 0.00020678 6.78e-06 
0.000274201 0.000755995 0.000212838 1.284e-05 
0.000276879 0.000736285 0.000207704 7.705e-06 
0.000280538 0.000760115 0.000243592 1.88315e-05 
0.000293221 0.000759498 0.000221351 6.78e-06 
0.000250976 0.00074984 0.000221899 1.284e-05 
0.000257087 0.000753825 0.000251742 6.78e-06 
0.000270269 0.00079322 0.000239171 6.78e-06 
0.000289312 0.000745569 0.000222059 7.705e-06 
0.000239947 0.000788562 0.00024709 7.705e-06 
0.00023087 0.000739726 0.0002113 1.1301e-05 
0.000269725 0.000736248 0.000228715 1.1301e-05 
0.000250829 0.000761731 0.000239924 8.755e-06 
0.000212003 0.000740352 0.000247824 1.45885e-05 
0.000291246 0.000731333 0.000214026 8.755e-06 
0.000267516 0.000737353 0.000252154 8.755e-06 
0.000291245 0.000734705 0.000244397 8.755e-06 
0.000237948 0.000726294 0.00021952 5.965e-06 
0.000249946 0.000730473 0.000209944 9.945e-06 
0.000242842 0.000736053 0.000246576 1.6575e-05 
0.000269986 0.000722463 0.000243279 8.755e-06 
0.00029322 0.000717736 0.000206779 6.78e-06 
0.000211517 0.000732113 0.000207704 7.705e-06 
0.000215654 0.000726202 0.000225286 1.1301e-05 
0.000221189 0.000760125 0.000235135 6.78e-06 
0.000226332 0.000792295 0.000253268 7.705e-06 
0.000225512 0.000720569 0.000208754 8.755e-06 
0.000287161 0.000718405 0.000230835 1.284e-05 
0.000268848 0.000718086 0.000212837 1.284e-05 
0.000203558 0.000791247 0.000225333 8.755e-06 
0.000253809 0.00072413 0.000227105 8.755e-06 
0.00021856 0.000768641 0.000243215 5.25e-06 
0.000211398 0.00071667 0.000205965 5.965e-06 
0.000232636 0.000717969 0.000232072 8.755e-06 
